
     Program PWSCF v.7.5 starts on 29Aug2026 at 15:45:17 

     This program is part of the open-source Quantum ESPRESSO suite
     for quantum simulation of materials; please cite
         "P. Giannozzi et al., J. Phys.:Condens. Matter 21 395502 (2009);
         "P. Giannozzi et al., J. Phys.:Condens. Matter 29 465901 (2017);
         "P. Giannozzi et al., J. Chem. Phys. 152 154105 (2020);
          URL http://www.quantum-espresso.org", 
     in publications or presentations arising from this work. More details at
     http://www.quantum-espresso.org/quote

     Parallel version (MPI), running on     4 processors

     MPI processes distributed on     1 nodes
     4624 MiB available memory on the printing compute node when the environment starts

     Reading input from sample01.pw.in

     Current dimensions of program PWSCF are:
     Max number of different atomic species (ntypx) = 10
     Max number of k-points (npk) =  40000
     Max angular momentum in pseudopotentials (lmaxx) =  4

     R & G space division:  proc/nbgrp/npool/nimage =       4
     Subspace diagonalization in iterative solution of the eigenvalue problem:
     a serial algorithm will be used


     Parallelization info
     --------------------
     sticks:   dense  smooth     PW     G-vecs:    dense   smooth      PW
     Min         289     289     87                16043    16043    2567
     Max         290     290     88                16052    16052    2572
     Sum        1159    1159    349                64193    64193   10281

     Using Slab Decomposition



     bravais-lattice index     =           14
     lattice parameter (alat)  =       8.0502  a.u.
     unit-cell volume          =     903.6204 (a.u.)^3
     number of atoms/cell      =            6
     number of atomic types    =            1
     number of electrons       =        24.00
     number of Kohn-Sham states=           32
     kinetic-energy cutoff     =      65.0000  Ry
     charge density cutoff     =     260.0000  Ry
     scf convergence threshold =      1.0E-09
     mixing beta               =       0.7000
     number of iterations used =            8  plain     mixing
     Exchange-correlation= LDA
                           (   1   1   0   0   0   0   0)
     Non magnetic calculation with spin-orbit


     celldm(1)=   8.050233  celldm(2)=   1.000000  celldm(3)=   2.000000
     celldm(4)=   0.000000  celldm(5)=   0.000000  celldm(6)=  -0.500000

     crystal axes: (cart. coord. in units of alat)
               a(1) = (   1.000000   0.000000   0.000000 )  
               a(2) = (  -0.500000   0.866025   0.000000 )  
               a(3) = (   0.000000   0.000000   2.000000 )  

     reciprocal axes: (cart. coord. in units 2 pi/alat)
               b(1) = (  1.000000  0.577350 -0.000000 )  
               b(2) = (  0.000000  1.154701  0.000000 )  
               b(3) = (  0.000000 -0.000000  0.500000 )  


     PseudoPot. # 1 for C  read from file:
     /home/amin/Desktop/QE/C.rel-pz-n-rrkjus_psl.0.1.UPF
     MD5 check sum: b2502eaa7b3977e8d7ade695bd837d9c
     Pseudo is Ultrasoft + core correction, Zval =  4.0
     Generated using "atomic" code by A. Dal Corso  v.5.0.2 svn rev. 9415
     Using radial grid of 1073 points,  6 beta functions with: 
                l(1) =   0
                l(2) =   0
                l(3) =   1
                l(4) =   1
                l(5) =   1
                l(6) =   1
     Q(r) pseudized with 0 coefficients 


     atomic species   valence    mass     pseudopotential
     C                 4.00    12.00000     C ( 1.00)

      4 Sym. Ops. (no inversion) found


                                    s                        frac. trans.

      isym =  1     identity                                     

 cryst.   s( 1) = (     1          0          0      )
                  (     0          1          0      )
                  (     0          0          1      )

 cart.    s( 1) = (  1.0000000  0.0000000  0.0000000 )
                  (  0.0000000  1.0000000  0.0000000 )
                  (  0.0000000  0.0000000  1.0000000 )


      isym =  2     180 deg rotation - cart. axis [0,1,0]        

 cryst.   s( 2) = (    -1          0          0      )
                  (     1          1          0      )
                  (     0          0         -1      )

 cart.    s( 2) = ( -1.0000000  0.0000000  0.0000000 )
                  (  0.0000000  1.0000000  0.0000000 )
                  (  0.0000000  0.0000000 -1.0000000 )


      isym =  3     inv. 180 deg rotation - cart. axis [0,0,1]   

 cryst.   s( 3) = (     1          0          0      )
                  (     0          1          0      )
                  (     0          0         -1      )

 cart.    s( 3) = (  1.0000000  0.0000000  0.0000000 )
                  (  0.0000000  1.0000000  0.0000000 )
                  (  0.0000000  0.0000000 -1.0000000 )


      isym =  4     inv. 180 deg rotation - cart. axis [1,0,0]   

 cryst.   s( 4) = (    -1          0          0      )
                  (     1          1          0      )
                  (     0          0          1      )

 cart.    s( 4) = ( -1.0000000  0.0000000  0.0000000 )
                  (  0.0000000  1.0000000  0.0000000 )
                  (  0.0000000  0.0000000  1.0000000 )


     double point group C_2v (mm2) 
     there are  5 classes and  1 irreducible representations
     the character table:

       E     -E     C2    s_v   s_v'
                   -C2   -s_v  -s_v'
G_5    2.00 -2.00  0.00  0.00  0.00

     the symmetry operations in each class and the name of the first element:

     E             1
          identity                                               
     -E           -1
          identity E                                             
      C2  -C2      2   -2
          180 deg rotation - cart. axis [0,1,0]                  
      s_v -s_v     3   -3
          inv. 180 deg rotation - cart. axis [0,0,1]             
      s_v'-s_v'    4   -4
          inv. 180 deg rotation - cart. axis [1,0,0]             

   Cartesian axes

     site n.     atom                  positions (alat units)
         1        C      tau(   1) = (   0.3333333   0.0000000   0.0000000  )
         2        C      tau(   2) = (   0.6666667   0.0000000   0.0000000  )
         3        C      tau(   3) = (  -0.1666667   0.2886385   0.0000000  )
         4        C      tau(   4) = (  -0.3333333   0.5773005   0.0000000  )
         5        C      tau(   5) = (   0.1666667   0.2886385   0.0000000  )
         6        C      tau(   6) = (   0.3333333   0.5773005   0.0000000  )

   Crystallographic axes

     site n.     atom                  positions (cryst. coord.)
         1        C      tau(   1) = (  0.3333333  0.0000000  0.0000000  )
         2        C      tau(   2) = (  0.6666667  0.0000000  0.0000000  )
         3        C      tau(   3) = ( -0.0000212  0.3332910  0.0000000  )
         4        C      tau(   4) = ( -0.0000288  0.6666092  0.0000000  )
         5        C      tau(   5) = (  0.3333122  0.3332910  0.0000000  )
         6        C      tau(   6) = (  0.6666379  0.6666092  0.0000000  )

     number of k points=   208  Gaussian smearing, width (Ry)=  0.0200
                       cart. coord. in units 2pi/alat
        k(    1) = (   0.0625000   0.1082532   0.0312500), wk =   0.0052083
        k(    2) = (   0.0625000   0.1082532   0.0937500), wk =   0.0052083
        k(    3) = (   0.0625000   0.1082532   0.1562500), wk =   0.0052083
        k(    4) = (   0.0625000   0.1082532   0.2187500), wk =   0.0052083
        k(    5) = (   0.0625000   0.2525907   0.0312500), wk =   0.0052083
        k(    6) = (   0.0625000   0.2525907   0.0937500), wk =   0.0052083
        k(    7) = (   0.0625000   0.2525907   0.1562500), wk =   0.0052083
        k(    8) = (   0.0625000   0.2525907   0.2187500), wk =   0.0052083
        k(    9) = (   0.0625000   0.3969283   0.0312500), wk =   0.0052083
        k(   10) = (   0.0625000   0.3969283   0.0937500), wk =   0.0052083
        k(   11) = (   0.0625000   0.3969283   0.1562500), wk =   0.0052083
        k(   12) = (   0.0625000   0.3969283   0.2187500), wk =   0.0052083
        k(   13) = (   0.0625000   0.5412659   0.0312500), wk =   0.0052083
        k(   14) = (   0.0625000   0.5412659   0.0937500), wk =   0.0052083
        k(   15) = (   0.0625000   0.5412659   0.1562500), wk =   0.0052083
        k(   16) = (   0.0625000   0.5412659   0.2187500), wk =   0.0052083
        k(   17) = (   0.0625000  -0.4690971   0.0312500), wk =   0.0052083
        k(   18) = (   0.0625000  -0.4690971   0.0937500), wk =   0.0052083
        k(   19) = (   0.0625000  -0.4690971   0.1562500), wk =   0.0052083
        k(   20) = (   0.0625000  -0.4690971   0.2187500), wk =   0.0052083
        k(   21) = (   0.0625000  -0.3247595   0.0312500), wk =   0.0052083
        k(   22) = (   0.0625000  -0.3247595   0.0937500), wk =   0.0052083
        k(   23) = (   0.0625000  -0.3247595   0.1562500), wk =   0.0052083
        k(   24) = (   0.0625000  -0.3247595   0.2187500), wk =   0.0052083
        k(   25) = (   0.0625000  -0.1804220   0.0312500), wk =   0.0052083
        k(   26) = (   0.0625000  -0.1804220   0.0937500), wk =   0.0052083
        k(   27) = (   0.0625000  -0.1804220   0.1562500), wk =   0.0052083
        k(   28) = (   0.0625000  -0.1804220   0.2187500), wk =   0.0052083
        k(   29) = (   0.0625000  -0.0360844   0.0312500), wk =   0.0052083
        k(   30) = (   0.0625000  -0.0360844   0.0937500), wk =   0.0052083
        k(   31) = (   0.0625000  -0.0360844   0.1562500), wk =   0.0052083
        k(   32) = (   0.0625000  -0.0360844   0.2187500), wk =   0.0052083
        k(   33) = (   0.1875000   0.3247595   0.0312500), wk =   0.0052083
        k(   34) = (   0.1875000   0.3247595   0.0937500), wk =   0.0052083
        k(   35) = (   0.1875000   0.3247595   0.1562500), wk =   0.0052083
        k(   36) = (   0.1875000   0.3247595   0.2187500), wk =   0.0052083
        k(   37) = (   0.1875000   0.4690971   0.0312500), wk =   0.0052083
        k(   38) = (   0.1875000   0.4690971   0.0937500), wk =   0.0052083
        k(   39) = (   0.1875000   0.4690971   0.1562500), wk =   0.0052083
        k(   40) = (   0.1875000   0.4690971   0.2187500), wk =   0.0052083
        k(   41) = (   0.1875000   0.6134347   0.0312500), wk =   0.0052083
        k(   42) = (   0.1875000   0.6134347   0.0937500), wk =   0.0052083
        k(   43) = (   0.1875000   0.6134347   0.1562500), wk =   0.0052083
        k(   44) = (   0.1875000   0.6134347   0.2187500), wk =   0.0052083
        k(   45) = (   0.1875000  -0.3969283   0.0312500), wk =   0.0052083
        k(   46) = (   0.1875000  -0.3969283   0.0937500), wk =   0.0052083
        k(   47) = (   0.1875000  -0.3969283   0.1562500), wk =   0.0052083
        k(   48) = (   0.1875000  -0.3969283   0.2187500), wk =   0.0052083
        k(   49) = (   0.1875000  -0.2525907   0.0312500), wk =   0.0052083
        k(   50) = (   0.1875000  -0.2525907   0.0937500), wk =   0.0052083
        k(   51) = (   0.1875000  -0.2525907   0.1562500), wk =   0.0052083
        k(   52) = (   0.1875000  -0.2525907   0.2187500), wk =   0.0052083
        k(   53) = (   0.1875000  -0.1082532   0.0312500), wk =   0.0052083
        k(   54) = (   0.1875000  -0.1082532   0.0937500), wk =   0.0052083
        k(   55) = (   0.1875000  -0.1082532   0.1562500), wk =   0.0052083
        k(   56) = (   0.1875000  -0.1082532   0.2187500), wk =   0.0052083
        k(   57) = (   0.3125000   0.5412659   0.0312500), wk =   0.0052083
        k(   58) = (   0.3125000   0.5412659   0.0937500), wk =   0.0052083
        k(   59) = (   0.3125000   0.5412659   0.1562500), wk =   0.0052083
        k(   60) = (   0.3125000   0.5412659   0.2187500), wk =   0.0052083
        k(   61) = (   0.3125000   0.6856034   0.0312500), wk =   0.0052083
        k(   62) = (   0.3125000   0.6856034   0.0937500), wk =   0.0052083
        k(   63) = (   0.3125000   0.6856034   0.1562500), wk =   0.0052083
        k(   64) = (   0.3125000   0.6856034   0.2187500), wk =   0.0052083
        k(   65) = (   0.3125000  -0.3247595   0.0312500), wk =   0.0052083
        k(   66) = (   0.3125000  -0.3247595   0.0937500), wk =   0.0052083
        k(   67) = (   0.3125000  -0.3247595   0.1562500), wk =   0.0052083
        k(   68) = (   0.3125000  -0.3247595   0.2187500), wk =   0.0052083
        k(   69) = (   0.3125000  -0.1804220   0.0312500), wk =   0.0052083
        k(   70) = (   0.3125000  -0.1804220   0.0937500), wk =   0.0052083
        k(   71) = (   0.3125000  -0.1804220   0.1562500), wk =   0.0052083
        k(   72) = (   0.3125000  -0.1804220   0.2187500), wk =   0.0052083
        k(   73) = (   0.4375000   0.7577722   0.0312500), wk =   0.0052083
        k(   74) = (   0.4375000   0.7577722   0.0937500), wk =   0.0052083
        k(   75) = (   0.4375000   0.7577722   0.1562500), wk =   0.0052083
        k(   76) = (   0.4375000   0.7577722   0.2187500), wk =   0.0052083
        k(   77) = (   0.4375000  -0.2525907   0.0312500), wk =   0.0052083
        k(   78) = (   0.4375000  -0.2525907   0.0937500), wk =   0.0052083
        k(   79) = (   0.4375000  -0.2525907   0.1562500), wk =   0.0052083
        k(   80) = (   0.4375000  -0.2525907   0.2187500), wk =   0.0052083
        k(   81) = (   0.1250000   0.0000000   0.0312500), wk =   0.0026042
        k(   82) = (   0.1250000   0.0000000   0.0937500), wk =   0.0026042
        k(   83) = (   0.1250000   0.0000000   0.1562500), wk =   0.0026042
        k(   84) = (   0.1250000   0.0000000   0.2187500), wk =   0.0026042
        k(   85) = (  -0.1875000   0.1804220   0.0312500), wk =   0.0052083
        k(   86) = (   0.2500000   0.0721688   0.0312500), wk =   0.0052083
        k(   87) = (  -0.1875000   0.1804220   0.0937500), wk =   0.0052083
        k(   88) = (   0.2500000   0.0721688   0.0937500), wk =   0.0052083
        k(   89) = (  -0.1875000   0.1804220   0.1562500), wk =   0.0052083
        k(   90) = (   0.2500000   0.0721688   0.1562500), wk =   0.0052083
        k(   91) = (  -0.1875000   0.1804220   0.2187500), wk =   0.0052083
        k(   92) = (   0.2500000   0.0721688   0.2187500), wk =   0.0052083
        k(   93) = (  -0.3125000   0.2525907   0.0312500), wk =   0.0052083
        k(   94) = (   0.3750000   0.1443376   0.0312500), wk =   0.0052083
        k(   95) = (  -0.3125000   0.2525907   0.0937500), wk =   0.0052083
        k(   96) = (   0.3750000   0.1443376   0.0937500), wk =   0.0052083
        k(   97) = (  -0.3125000   0.2525907   0.1562500), wk =   0.0052083
        k(   98) = (   0.3750000   0.1443376   0.1562500), wk =   0.0052083
        k(   99) = (  -0.3125000   0.2525907   0.2187500), wk =   0.0052083
        k(  100) = (   0.3750000   0.1443376   0.2187500), wk =   0.0052083
        k(  101) = (  -0.4375000   0.3247595   0.0312500), wk =   0.0052083
        k(  102) = (   0.5000000   0.2165064   0.0312500), wk =   0.0052083
        k(  103) = (  -0.4375000   0.3247595   0.0937500), wk =   0.0052083
        k(  104) = (   0.5000000   0.2165064   0.0937500), wk =   0.0052083
        k(  105) = (  -0.4375000   0.3247595   0.1562500), wk =   0.0052083
        k(  106) = (   0.5000000   0.2165064   0.1562500), wk =   0.0052083
        k(  107) = (  -0.4375000   0.3247595   0.2187500), wk =   0.0052083
        k(  108) = (   0.5000000   0.2165064   0.2187500), wk =   0.0052083
        k(  109) = (   0.4375000  -0.1804220   0.0312500), wk =   0.0052083
        k(  110) = (  -0.3750000  -0.2886751   0.0312500), wk =   0.0052083
        k(  111) = (   0.4375000  -0.1804220   0.0937500), wk =   0.0052083
        k(  112) = (  -0.3750000  -0.2886751   0.0937500), wk =   0.0052083
        k(  113) = (   0.4375000  -0.1804220   0.1562500), wk =   0.0052083
        k(  114) = (  -0.3750000  -0.2886751   0.1562500), wk =   0.0052083
        k(  115) = (   0.4375000  -0.1804220   0.2187500), wk =   0.0052083
        k(  116) = (  -0.3750000  -0.2886751   0.2187500), wk =   0.0052083
        k(  117) = (   0.3125000  -0.1082532   0.0312500), wk =   0.0052083
        k(  118) = (  -0.2500000  -0.2165064   0.0312500), wk =   0.0052083
        k(  119) = (   0.3125000  -0.1082532   0.0937500), wk =   0.0052083
        k(  120) = (  -0.2500000  -0.2165064   0.0937500), wk =   0.0052083
        k(  121) = (   0.3125000  -0.1082532   0.1562500), wk =   0.0052083
        k(  122) = (  -0.2500000  -0.2165064   0.1562500), wk =   0.0052083
        k(  123) = (   0.3125000  -0.1082532   0.2187500), wk =   0.0052083
        k(  124) = (  -0.2500000  -0.2165064   0.2187500), wk =   0.0052083
        k(  125) = (   0.1875000  -0.0360844   0.0312500), wk =   0.0052083
        k(  126) = (  -0.1250000  -0.1443376   0.0312500), wk =   0.0052083
        k(  127) = (   0.1875000  -0.0360844   0.0937500), wk =   0.0052083
        k(  128) = (  -0.1250000  -0.1443376   0.0937500), wk =   0.0052083
        k(  129) = (   0.1875000  -0.0360844   0.1562500), wk =   0.0052083
        k(  130) = (  -0.1250000  -0.1443376   0.1562500), wk =   0.0052083
        k(  131) = (   0.1875000  -0.0360844   0.2187500), wk =   0.0052083
        k(  132) = (  -0.1250000  -0.1443376   0.2187500), wk =   0.0052083
        k(  133) = (   0.0000000  -0.0721688   0.0312500), wk =   0.0026042
        k(  134) = (   0.0000000  -0.0721688   0.0937500), wk =   0.0026042
        k(  135) = (   0.0000000  -0.0721688   0.1562500), wk =   0.0026042
        k(  136) = (   0.0000000  -0.0721688   0.2187500), wk =   0.0026042
        k(  137) = (   0.3750000   0.0000000   0.0312500), wk =   0.0026042
        k(  138) = (   0.3750000   0.0000000   0.0937500), wk =   0.0026042
        k(  139) = (   0.3750000   0.0000000   0.1562500), wk =   0.0026042
        k(  140) = (   0.3750000   0.0000000   0.2187500), wk =   0.0026042
        k(  141) = (  -0.3125000   0.3969283   0.0312500), wk =   0.0052083
        k(  142) = (   0.5000000   0.0721688   0.0312500), wk =   0.0052083
        k(  143) = (  -0.3125000   0.3969283   0.0937500), wk =   0.0052083
        k(  144) = (   0.5000000   0.0721688   0.0937500), wk =   0.0052083
        k(  145) = (  -0.3125000   0.3969283   0.1562500), wk =   0.0052083
        k(  146) = (   0.5000000   0.0721688   0.1562500), wk =   0.0052083
        k(  147) = (  -0.3125000   0.3969283   0.2187500), wk =   0.0052083
        k(  148) = (   0.5000000   0.0721688   0.2187500), wk =   0.0052083
        k(  149) = (  -0.4375000   0.4690971   0.0312500), wk =   0.0052083
        k(  150) = (   0.6250000   0.1443376   0.0312500), wk =   0.0052083
        k(  151) = (  -0.4375000   0.4690971   0.0937500), wk =   0.0052083
        k(  152) = (   0.6250000   0.1443376   0.0937500), wk =   0.0052083
        k(  153) = (  -0.4375000   0.4690971   0.1562500), wk =   0.0052083
        k(  154) = (   0.6250000   0.1443376   0.1562500), wk =   0.0052083
        k(  155) = (  -0.4375000   0.4690971   0.2187500), wk =   0.0052083
        k(  156) = (   0.6250000   0.1443376   0.2187500), wk =   0.0052083
        k(  157) = (   0.4375000  -0.0360844   0.0312500), wk =   0.0052083
        k(  158) = (  -0.2500000  -0.3608439   0.0312500), wk =   0.0052083
        k(  159) = (   0.4375000  -0.0360844   0.0937500), wk =   0.0052083
        k(  160) = (  -0.2500000  -0.3608439   0.0937500), wk =   0.0052083
        k(  161) = (   0.4375000  -0.0360844   0.1562500), wk =   0.0052083
        k(  162) = (  -0.2500000  -0.3608439   0.1562500), wk =   0.0052083
        k(  163) = (   0.4375000  -0.0360844   0.2187500), wk =   0.0052083
        k(  164) = (  -0.2500000  -0.3608439   0.2187500), wk =   0.0052083
        k(  165) = (   0.3125000   0.0360844   0.0312500), wk =   0.0052083
        k(  166) = (  -0.1250000  -0.2886751   0.0312500), wk =   0.0052083
        k(  167) = (   0.3125000   0.0360844   0.0937500), wk =   0.0052083
        k(  168) = (  -0.1250000  -0.2886751   0.0937500), wk =   0.0052083
        k(  169) = (   0.3125000   0.0360844   0.1562500), wk =   0.0052083
        k(  170) = (  -0.1250000  -0.2886751   0.1562500), wk =   0.0052083
        k(  171) = (   0.3125000   0.0360844   0.2187500), wk =   0.0052083
        k(  172) = (  -0.1250000  -0.2886751   0.2187500), wk =   0.0052083
        k(  173) = (   0.0000000  -0.2165064   0.0312500), wk =   0.0026042
        k(  174) = (   0.0000000  -0.2165064   0.0937500), wk =   0.0026042
        k(  175) = (   0.0000000  -0.2165064   0.1562500), wk =   0.0026042
        k(  176) = (   0.0000000  -0.2165064   0.2187500), wk =   0.0026042
        k(  177) = (   0.6250000   0.0000000   0.0312500), wk =   0.0026042
        k(  178) = (   0.6250000   0.0000000   0.0937500), wk =   0.0026042
        k(  179) = (   0.6250000   0.0000000   0.1562500), wk =   0.0026042
        k(  180) = (   0.6250000   0.0000000   0.2187500), wk =   0.0026042
        k(  181) = (  -0.4375000   0.6134347   0.0312500), wk =   0.0052083
        k(  182) = (   0.7500000   0.0721688   0.0312500), wk =   0.0052083
        k(  183) = (  -0.4375000   0.6134347   0.0937500), wk =   0.0052083
        k(  184) = (   0.7500000   0.0721688   0.0937500), wk =   0.0052083
        k(  185) = (  -0.4375000   0.6134347   0.1562500), wk =   0.0052083
        k(  186) = (   0.7500000   0.0721688   0.1562500), wk =   0.0052083
        k(  187) = (  -0.4375000   0.6134347   0.2187500), wk =   0.0052083
        k(  188) = (   0.7500000   0.0721688   0.2187500), wk =   0.0052083
        k(  189) = (   0.4375000   0.1082532   0.0312500), wk =   0.0052083
        k(  190) = (  -0.1250000  -0.4330127   0.0312500), wk =   0.0052083
        k(  191) = (   0.4375000   0.1082532   0.0937500), wk =   0.0052083
        k(  192) = (  -0.1250000  -0.4330127   0.0937500), wk =   0.0052083
        k(  193) = (   0.4375000   0.1082532   0.1562500), wk =   0.0052083
        k(  194) = (  -0.1250000  -0.4330127   0.1562500), wk =   0.0052083
        k(  195) = (   0.4375000   0.1082532   0.2187500), wk =   0.0052083
        k(  196) = (  -0.1250000  -0.4330127   0.2187500), wk =   0.0052083
        k(  197) = (   0.0000000  -0.3608439   0.0312500), wk =   0.0026042
        k(  198) = (   0.0000000  -0.3608439   0.0937500), wk =   0.0026042
        k(  199) = (   0.0000000  -0.3608439   0.1562500), wk =   0.0026042
        k(  200) = (   0.0000000  -0.3608439   0.2187500), wk =   0.0026042
        k(  201) = (   0.8750000   0.0000000   0.0312500), wk =   0.0026042
        k(  202) = (   0.8750000   0.0000000   0.0937500), wk =   0.0026042
        k(  203) = (   0.8750000   0.0000000   0.1562500), wk =   0.0026042
        k(  204) = (   0.8750000   0.0000000   0.2187500), wk =   0.0026042
        k(  205) = (   0.0000000  -0.5051815   0.0312500), wk =   0.0026042
        k(  206) = (   0.0000000  -0.5051815   0.0937500), wk =   0.0026042
        k(  207) = (   0.0000000  -0.5051815   0.1562500), wk =   0.0026042
        k(  208) = (   0.0000000  -0.5051815   0.2187500), wk =   0.0026042

                       cryst. coord.
        k(    1) = (   0.0625000   0.0625000   0.0625000), wk =   0.0052083
        k(    2) = (   0.0625000   0.0625000   0.1875000), wk =   0.0052083
        k(    3) = (   0.0625000   0.0625000   0.3125000), wk =   0.0052083
        k(    4) = (   0.0625000   0.0625000   0.4375000), wk =   0.0052083
        k(    5) = (   0.0625000   0.1875000   0.0625000), wk =   0.0052083
        k(    6) = (   0.0625000   0.1875000   0.1875000), wk =   0.0052083
        k(    7) = (   0.0625000   0.1875000   0.3125000), wk =   0.0052083
        k(    8) = (   0.0625000   0.1875000   0.4375000), wk =   0.0052083
        k(    9) = (   0.0625000   0.3125000   0.0625000), wk =   0.0052083
        k(   10) = (   0.0625000   0.3125000   0.1875000), wk =   0.0052083
        k(   11) = (   0.0625000   0.3125000   0.3125000), wk =   0.0052083
        k(   12) = (   0.0625000   0.3125000   0.4375000), wk =   0.0052083
        k(   13) = (   0.0625000   0.4375000   0.0625000), wk =   0.0052083
        k(   14) = (   0.0625000   0.4375000   0.1875000), wk =   0.0052083
        k(   15) = (   0.0625000   0.4375000   0.3125000), wk =   0.0052083
        k(   16) = (   0.0625000   0.4375000   0.4375000), wk =   0.0052083
        k(   17) = (   0.0625000  -0.4375000   0.0625000), wk =   0.0052083
        k(   18) = (   0.0625000  -0.4375000   0.1875000), wk =   0.0052083
        k(   19) = (   0.0625000  -0.4375000   0.3125000), wk =   0.0052083
        k(   20) = (   0.0625000  -0.4375000   0.4375000), wk =   0.0052083
        k(   21) = (   0.0625000  -0.3125000   0.0625000), wk =   0.0052083
        k(   22) = (   0.0625000  -0.3125000   0.1875000), wk =   0.0052083
        k(   23) = (   0.0625000  -0.3125000   0.3125000), wk =   0.0052083
        k(   24) = (   0.0625000  -0.3125000   0.4375000), wk =   0.0052083
        k(   25) = (   0.0625000  -0.1875000   0.0625000), wk =   0.0052083
        k(   26) = (   0.0625000  -0.1875000   0.1875000), wk =   0.0052083
        k(   27) = (   0.0625000  -0.1875000   0.3125000), wk =   0.0052083
        k(   28) = (   0.0625000  -0.1875000   0.4375000), wk =   0.0052083
        k(   29) = (   0.0625000  -0.0625000   0.0625000), wk =   0.0052083
        k(   30) = (   0.0625000  -0.0625000   0.1875000), wk =   0.0052083
        k(   31) = (   0.0625000  -0.0625000   0.3125000), wk =   0.0052083
        k(   32) = (   0.0625000  -0.0625000   0.4375000), wk =   0.0052083
        k(   33) = (   0.1875000   0.1875000   0.0625000), wk =   0.0052083
        k(   34) = (   0.1875000   0.1875000   0.1875000), wk =   0.0052083
        k(   35) = (   0.1875000   0.1875000   0.3125000), wk =   0.0052083
        k(   36) = (   0.1875000   0.1875000   0.4375000), wk =   0.0052083
        k(   37) = (   0.1875000   0.3125000   0.0625000), wk =   0.0052083
        k(   38) = (   0.1875000   0.3125000   0.1875000), wk =   0.0052083
        k(   39) = (   0.1875000   0.3125000   0.3125000), wk =   0.0052083
        k(   40) = (   0.1875000   0.3125000   0.4375000), wk =   0.0052083
        k(   41) = (   0.1875000   0.4375000   0.0625000), wk =   0.0052083
        k(   42) = (   0.1875000   0.4375000   0.1875000), wk =   0.0052083
        k(   43) = (   0.1875000   0.4375000   0.3125000), wk =   0.0052083
        k(   44) = (   0.1875000   0.4375000   0.4375000), wk =   0.0052083
        k(   45) = (   0.1875000  -0.4375000   0.0625000), wk =   0.0052083
        k(   46) = (   0.1875000  -0.4375000   0.1875000), wk =   0.0052083
        k(   47) = (   0.1875000  -0.4375000   0.3125000), wk =   0.0052083
        k(   48) = (   0.1875000  -0.4375000   0.4375000), wk =   0.0052083
        k(   49) = (   0.1875000  -0.3125000   0.0625000), wk =   0.0052083
        k(   50) = (   0.1875000  -0.3125000   0.1875000), wk =   0.0052083
        k(   51) = (   0.1875000  -0.3125000   0.3125000), wk =   0.0052083
        k(   52) = (   0.1875000  -0.3125000   0.4375000), wk =   0.0052083
        k(   53) = (   0.1875000  -0.1875000   0.0625000), wk =   0.0052083
        k(   54) = (   0.1875000  -0.1875000   0.1875000), wk =   0.0052083
        k(   55) = (   0.1875000  -0.1875000   0.3125000), wk =   0.0052083
        k(   56) = (   0.1875000  -0.1875000   0.4375000), wk =   0.0052083
        k(   57) = (   0.3125000   0.3125000   0.0625000), wk =   0.0052083
        k(   58) = (   0.3125000   0.3125000   0.1875000), wk =   0.0052083
        k(   59) = (   0.3125000   0.3125000   0.3125000), wk =   0.0052083
        k(   60) = (   0.3125000   0.3125000   0.4375000), wk =   0.0052083
        k(   61) = (   0.3125000   0.4375000   0.0625000), wk =   0.0052083
        k(   62) = (   0.3125000   0.4375000   0.1875000), wk =   0.0052083
        k(   63) = (   0.3125000   0.4375000   0.3125000), wk =   0.0052083
        k(   64) = (   0.3125000   0.4375000   0.4375000), wk =   0.0052083
        k(   65) = (   0.3125000  -0.4375000   0.0625000), wk =   0.0052083
        k(   66) = (   0.3125000  -0.4375000   0.1875000), wk =   0.0052083
        k(   67) = (   0.3125000  -0.4375000   0.3125000), wk =   0.0052083
        k(   68) = (   0.3125000  -0.4375000   0.4375000), wk =   0.0052083
        k(   69) = (   0.3125000  -0.3125000   0.0625000), wk =   0.0052083
        k(   70) = (   0.3125000  -0.3125000   0.1875000), wk =   0.0052083
        k(   71) = (   0.3125000  -0.3125000   0.3125000), wk =   0.0052083
        k(   72) = (   0.3125000  -0.3125000   0.4375000), wk =   0.0052083
        k(   73) = (   0.4375000   0.4375000   0.0625000), wk =   0.0052083
        k(   74) = (   0.4375000   0.4375000   0.1875000), wk =   0.0052083
        k(   75) = (   0.4375000   0.4375000   0.3125000), wk =   0.0052083
        k(   76) = (   0.4375000   0.4375000   0.4375000), wk =   0.0052083
        k(   77) = (   0.4375000  -0.4375000   0.0625000), wk =   0.0052083
        k(   78) = (   0.4375000  -0.4375000   0.1875000), wk =   0.0052083
        k(   79) = (   0.4375000  -0.4375000   0.3125000), wk =   0.0052083
        k(   80) = (   0.4375000  -0.4375000   0.4375000), wk =   0.0052083
        k(   81) = (   0.1250000  -0.0625000   0.0625000), wk =   0.0026042
        k(   82) = (   0.1250000  -0.0625000   0.1875000), wk =   0.0026042
        k(   83) = (   0.1250000  -0.0625000   0.3125000), wk =   0.0026042
        k(   84) = (   0.1250000  -0.0625000   0.4375000), wk =   0.0026042
        k(   85) = (  -0.1875000   0.2500000   0.0625000), wk =   0.0052083
        k(   86) = (   0.2500000  -0.0625000   0.0625000), wk =   0.0052083
        k(   87) = (  -0.1875000   0.2500000   0.1875000), wk =   0.0052083
        k(   88) = (   0.2500000  -0.0625000   0.1875000), wk =   0.0052083
        k(   89) = (  -0.1875000   0.2500000   0.3125000), wk =   0.0052083
        k(   90) = (   0.2500000  -0.0625000   0.3125000), wk =   0.0052083
        k(   91) = (  -0.1875000   0.2500000   0.4375000), wk =   0.0052083
        k(   92) = (   0.2500000  -0.0625000   0.4375000), wk =   0.0052083
        k(   93) = (  -0.3125000   0.3750000   0.0625000), wk =   0.0052083
        k(   94) = (   0.3750000  -0.0625000   0.0625000), wk =   0.0052083
        k(   95) = (  -0.3125000   0.3750000   0.1875000), wk =   0.0052083
        k(   96) = (   0.3750000  -0.0625000   0.1875000), wk =   0.0052083
        k(   97) = (  -0.3125000   0.3750000   0.3125000), wk =   0.0052083
        k(   98) = (   0.3750000  -0.0625000   0.3125000), wk =   0.0052083
        k(   99) = (  -0.3125000   0.3750000   0.4375000), wk =   0.0052083
        k(  100) = (   0.3750000  -0.0625000   0.4375000), wk =   0.0052083
        k(  101) = (  -0.4375000   0.5000000   0.0625000), wk =   0.0052083
        k(  102) = (   0.5000000  -0.0625000   0.0625000), wk =   0.0052083
        k(  103) = (  -0.4375000   0.5000000   0.1875000), wk =   0.0052083
        k(  104) = (   0.5000000  -0.0625000   0.1875000), wk =   0.0052083
        k(  105) = (  -0.4375000   0.5000000   0.3125000), wk =   0.0052083
        k(  106) = (   0.5000000  -0.0625000   0.3125000), wk =   0.0052083
        k(  107) = (  -0.4375000   0.5000000   0.4375000), wk =   0.0052083
        k(  108) = (   0.5000000  -0.0625000   0.4375000), wk =   0.0052083
        k(  109) = (   0.4375000  -0.3750000   0.0625000), wk =   0.0052083
        k(  110) = (  -0.3750000  -0.0625000   0.0625000), wk =   0.0052083
        k(  111) = (   0.4375000  -0.3750000   0.1875000), wk =   0.0052083
        k(  112) = (  -0.3750000  -0.0625000   0.1875000), wk =   0.0052083
        k(  113) = (   0.4375000  -0.3750000   0.3125000), wk =   0.0052083
        k(  114) = (  -0.3750000  -0.0625000   0.3125000), wk =   0.0052083
        k(  115) = (   0.4375000  -0.3750000   0.4375000), wk =   0.0052083
        k(  116) = (  -0.3750000  -0.0625000   0.4375000), wk =   0.0052083
        k(  117) = (   0.3125000  -0.2500000   0.0625000), wk =   0.0052083
        k(  118) = (  -0.2500000  -0.0625000   0.0625000), wk =   0.0052083
        k(  119) = (   0.3125000  -0.2500000   0.1875000), wk =   0.0052083
        k(  120) = (  -0.2500000  -0.0625000   0.1875000), wk =   0.0052083
        k(  121) = (   0.3125000  -0.2500000   0.3125000), wk =   0.0052083
        k(  122) = (  -0.2500000  -0.0625000   0.3125000), wk =   0.0052083
        k(  123) = (   0.3125000  -0.2500000   0.4375000), wk =   0.0052083
        k(  124) = (  -0.2500000  -0.0625000   0.4375000), wk =   0.0052083
        k(  125) = (   0.1875000  -0.1250000   0.0625000), wk =   0.0052083
        k(  126) = (  -0.1250000  -0.0625000   0.0625000), wk =   0.0052083
        k(  127) = (   0.1875000  -0.1250000   0.1875000), wk =   0.0052083
        k(  128) = (  -0.1250000  -0.0625000   0.1875000), wk =   0.0052083
        k(  129) = (   0.1875000  -0.1250000   0.3125000), wk =   0.0052083
        k(  130) = (  -0.1250000  -0.0625000   0.3125000), wk =   0.0052083
        k(  131) = (   0.1875000  -0.1250000   0.4375000), wk =   0.0052083
        k(  132) = (  -0.1250000  -0.0625000   0.4375000), wk =   0.0052083
        k(  133) = (   0.0000000  -0.0625000   0.0625000), wk =   0.0026042
        k(  134) = (   0.0000000  -0.0625000   0.1875000), wk =   0.0026042
        k(  135) = (   0.0000000  -0.0625000   0.3125000), wk =   0.0026042
        k(  136) = (   0.0000000  -0.0625000   0.4375000), wk =   0.0026042
        k(  137) = (   0.3750000  -0.1875000   0.0625000), wk =   0.0026042
        k(  138) = (   0.3750000  -0.1875000   0.1875000), wk =   0.0026042
        k(  139) = (   0.3750000  -0.1875000   0.3125000), wk =   0.0026042
        k(  140) = (   0.3750000  -0.1875000   0.4375000), wk =   0.0026042
        k(  141) = (  -0.3125000   0.5000000   0.0625000), wk =   0.0052083
        k(  142) = (   0.5000000  -0.1875000   0.0625000), wk =   0.0052083
        k(  143) = (  -0.3125000   0.5000000   0.1875000), wk =   0.0052083
        k(  144) = (   0.5000000  -0.1875000   0.1875000), wk =   0.0052083
        k(  145) = (  -0.3125000   0.5000000   0.3125000), wk =   0.0052083
        k(  146) = (   0.5000000  -0.1875000   0.3125000), wk =   0.0052083
        k(  147) = (  -0.3125000   0.5000000   0.4375000), wk =   0.0052083
        k(  148) = (   0.5000000  -0.1875000   0.4375000), wk =   0.0052083
        k(  149) = (  -0.4375000   0.6250000   0.0625000), wk =   0.0052083
        k(  150) = (   0.6250000  -0.1875000   0.0625000), wk =   0.0052083
        k(  151) = (  -0.4375000   0.6250000   0.1875000), wk =   0.0052083
        k(  152) = (   0.6250000  -0.1875000   0.1875000), wk =   0.0052083
        k(  153) = (  -0.4375000   0.6250000   0.3125000), wk =   0.0052083
        k(  154) = (   0.6250000  -0.1875000   0.3125000), wk =   0.0052083
        k(  155) = (  -0.4375000   0.6250000   0.4375000), wk =   0.0052083
        k(  156) = (   0.6250000  -0.1875000   0.4375000), wk =   0.0052083
        k(  157) = (   0.4375000  -0.2500000   0.0625000), wk =   0.0052083
        k(  158) = (  -0.2500000  -0.1875000   0.0625000), wk =   0.0052083
        k(  159) = (   0.4375000  -0.2500000   0.1875000), wk =   0.0052083
        k(  160) = (  -0.2500000  -0.1875000   0.1875000), wk =   0.0052083
        k(  161) = (   0.4375000  -0.2500000   0.3125000), wk =   0.0052083
        k(  162) = (  -0.2500000  -0.1875000   0.3125000), wk =   0.0052083
        k(  163) = (   0.4375000  -0.2500000   0.4375000), wk =   0.0052083
        k(  164) = (  -0.2500000  -0.1875000   0.4375000), wk =   0.0052083
        k(  165) = (   0.3125000  -0.1250000   0.0625000), wk =   0.0052083
        k(  166) = (  -0.1250000  -0.1875000   0.0625000), wk =   0.0052083
        k(  167) = (   0.3125000  -0.1250000   0.1875000), wk =   0.0052083
        k(  168) = (  -0.1250000  -0.1875000   0.1875000), wk =   0.0052083
        k(  169) = (   0.3125000  -0.1250000   0.3125000), wk =   0.0052083
        k(  170) = (  -0.1250000  -0.1875000   0.3125000), wk =   0.0052083
        k(  171) = (   0.3125000  -0.1250000   0.4375000), wk =   0.0052083
        k(  172) = (  -0.1250000  -0.1875000   0.4375000), wk =   0.0052083
        k(  173) = (   0.0000000  -0.1875000   0.0625000), wk =   0.0026042
        k(  174) = (   0.0000000  -0.1875000   0.1875000), wk =   0.0026042
        k(  175) = (   0.0000000  -0.1875000   0.3125000), wk =   0.0026042
        k(  176) = (   0.0000000  -0.1875000   0.4375000), wk =   0.0026042
        k(  177) = (   0.6250000  -0.3125000   0.0625000), wk =   0.0026042
        k(  178) = (   0.6250000  -0.3125000   0.1875000), wk =   0.0026042
        k(  179) = (   0.6250000  -0.3125000   0.3125000), wk =   0.0026042
        k(  180) = (   0.6250000  -0.3125000   0.4375000), wk =   0.0026042
        k(  181) = (  -0.4375000   0.7500000   0.0625000), wk =   0.0052083
        k(  182) = (   0.7500000  -0.3125000   0.0625000), wk =   0.0052083
        k(  183) = (  -0.4375000   0.7500000   0.1875000), wk =   0.0052083
        k(  184) = (   0.7500000  -0.3125000   0.1875000), wk =   0.0052083
        k(  185) = (  -0.4375000   0.7500000   0.3125000), wk =   0.0052083
        k(  186) = (   0.7500000  -0.3125000   0.3125000), wk =   0.0052083
        k(  187) = (  -0.4375000   0.7500000   0.4375000), wk =   0.0052083
        k(  188) = (   0.7500000  -0.3125000   0.4375000), wk =   0.0052083
        k(  189) = (   0.4375000  -0.1250000   0.0625000), wk =   0.0052083
        k(  190) = (  -0.1250000  -0.3125000   0.0625000), wk =   0.0052083
        k(  191) = (   0.4375000  -0.1250000   0.1875000), wk =   0.0052083
        k(  192) = (  -0.1250000  -0.3125000   0.1875000), wk =   0.0052083
        k(  193) = (   0.4375000  -0.1250000   0.3125000), wk =   0.0052083
        k(  194) = (  -0.1250000  -0.3125000   0.3125000), wk =   0.0052083
        k(  195) = (   0.4375000  -0.1250000   0.4375000), wk =   0.0052083
        k(  196) = (  -0.1250000  -0.3125000   0.4375000), wk =   0.0052083
        k(  197) = (   0.0000000  -0.3125000   0.0625000), wk =   0.0026042
        k(  198) = (   0.0000000  -0.3125000   0.1875000), wk =   0.0026042
        k(  199) = (   0.0000000  -0.3125000   0.3125000), wk =   0.0026042
        k(  200) = (   0.0000000  -0.3125000   0.4375000), wk =   0.0026042
        k(  201) = (   0.8750000  -0.4375000   0.0625000), wk =   0.0026042
        k(  202) = (   0.8750000  -0.4375000   0.1875000), wk =   0.0026042
        k(  203) = (   0.8750000  -0.4375000   0.3125000), wk =   0.0026042
        k(  204) = (   0.8750000  -0.4375000   0.4375000), wk =   0.0026042
        k(  205) = (   0.0000000  -0.4375000   0.0625000), wk =   0.0026042
        k(  206) = (   0.0000000  -0.4375000   0.1875000), wk =   0.0026042
        k(  207) = (   0.0000000  -0.4375000   0.3125000), wk =   0.0026042
        k(  208) = (   0.0000000  -0.4375000   0.4375000), wk =   0.0026042

     Dense  grid:    64193 G-vectors     FFT dimensions: (  45,  45,  90)

     Dynamical RAM for                 wfc:       1.95 MB

     Dynamical RAM for     wfc (w. buffer):       1.95 MB

     Dynamical RAM for           str. fact:       0.24 MB

     Dynamical RAM for           local pot:       0.00 MB

     Dynamical RAM for          nlocal pot:       2.56 MB

     Dynamical RAM for                qrad:       0.78 MB

     Dynamical RAM for          rho,v,vnew:       7.20 MB

     Dynamical RAM for               rhoin:       2.40 MB

     Dynamical RAM for           G-vectors:       1.04 MB

     Dynamical RAM for          h,s,v(r/c):       0.19 MB

     Dynamical RAM for          <psi|beta>:       0.08 MB

     Dynamical RAM for                 psi:       3.90 MB

     Dynamical RAM for                hpsi:       3.90 MB

     Dynamical RAM for                spsi:       3.90 MB

     Dynamical RAM for      wfcinit/wfcrot:       2.95 MB

     Dynamical RAM for           addusdens:      28.90 MB

     Dynamical RAM for          addusforce:      31.49 MB

     Dynamical RAM for         addusstress:      29.88 MB

     Estimated static dynamical RAM per process >      19.51 MB

     Estimated max dynamical RAM per process >      51.00 MB

     Estimated total dynamical RAM >     204.01 MB

     Check: negative core charge=   -0.000005

     Initial potential from superposition of free atoms

     starting charge      23.9998, renormalised to      24.0000
     Starting wfcs are   48 randomized atomic wfcs

     total cpu time spent up to now is      113.6 secs

     per-process dynamical memory:    38.9 Mb

     Self-consistent Calculation

     iteration #  1     ecut=    65.00 Ry     beta= 0.70
     Davidson diagonalization with overlap

---- Real-time Memory Report at c_bands before calling an iterative solver
            73 MiB given to the printing process from OS
            38 MiB allocation reported by mallinfo(arena+hblkhd)
          2732 MiB available memory on the node where the printing process lives
------------------
     ethr =  1.00E-02,  avg # of iterations =  4.3

     negative rho (up, down):  4.883E-08 0.000E+00

     total cpu time spent up to now is      393.5 secs

     total energy              =     -71.67352342 Ry
     estimated scf accuracy    <       0.28972013 Ry

     iteration #  2     ecut=    65.00 Ry     beta= 0.70
     Davidson diagonalization with overlap

---- Real-time Memory Report at c_bands before calling an iterative solver
            84 MiB given to the printing process from OS
            61 MiB allocation reported by mallinfo(arena+hblkhd)
          2654 MiB available memory on the node where the printing process lives
------------------
     ethr =  1.21E-03,  avg # of iterations =  4.7

     negative rho (up, down):  1.279E-04 0.000E+00

     total cpu time spent up to now is      659.6 secs

     total energy              =     -71.76088617 Ry
     estimated scf accuracy    <       0.05810550 Ry

     iteration #  3     ecut=    65.00 Ry     beta= 0.70
     Davidson diagonalization with overlap

---- Real-time Memory Report at c_bands before calling an iterative solver
            84 MiB given to the printing process from OS
            61 MiB allocation reported by mallinfo(arena+hblkhd)
          2651 MiB available memory on the node where the printing process lives
------------------
     c_bands:  1 eigenvalues not converged
     c_bands:  1 eigenvalues not converged
     c_bands:  2 eigenvalues not converged
     c_bands:  1 eigenvalues not converged
     ethr =  2.42E-04,  avg # of iterations = 11.9

     negative rho (up, down):  5.004E-05 0.000E+00

     total cpu time spent up to now is     1110.4 secs

     total energy              =     -71.79271973 Ry
     estimated scf accuracy    <       0.03707262 Ry

     iteration #  4     ecut=    65.00 Ry     beta= 0.70
     Davidson diagonalization with overlap

---- Real-time Memory Report at c_bands before calling an iterative solver
            84 MiB given to the printing process from OS
            61 MiB allocation reported by mallinfo(arena+hblkhd)
          2679 MiB available memory on the node where the printing process lives
------------------
     ethr =  1.54E-04,  avg # of iterations =  1.5

     negative rho (up, down):  5.142E-05 0.000E+00

     total cpu time spent up to now is     1264.7 secs

     total energy              =     -71.78523371 Ry
     estimated scf accuracy    <       0.01273881 Ry

     iteration #  5     ecut=    65.00 Ry     beta= 0.70
     Davidson diagonalization with overlap

---- Real-time Memory Report at c_bands before calling an iterative solver
            84 MiB given to the printing process from OS
            61 MiB allocation reported by mallinfo(arena+hblkhd)
          2663 MiB available memory on the node where the printing process lives
------------------
     c_bands:  2 eigenvalues not converged
     c_bands:  2 eigenvalues not converged
     c_bands:  1 eigenvalues not converged
     ethr =  5.31E-05,  avg # of iterations =  5.9

     negative rho (up, down):  4.289E-05 0.000E+00

     total cpu time spent up to now is     1561.5 secs

     total energy              =     -71.79116157 Ry
     estimated scf accuracy    <       0.00835935 Ry

     iteration #  6     ecut=    65.00 Ry     beta= 0.70
     Davidson diagonalization with overlap

---- Real-time Memory Report at c_bands before calling an iterative solver
            84 MiB given to the printing process from OS
            61 MiB allocation reported by mallinfo(arena+hblkhd)
          2624 MiB available memory on the node where the printing process lives
------------------
     c_bands:  1 eigenvalues not converged
     ethr =  3.48E-05,  avg # of iterations =  2.3

     negative rho (up, down):  3.869E-05 0.000E+00

     total cpu time spent up to now is     1719.3 secs

     total energy              =     -71.79085670 Ry
     estimated scf accuracy    <       0.00153765 Ry

     iteration #  7     ecut=    65.00 Ry     beta= 0.70
     Davidson diagonalization with overlap

---- Real-time Memory Report at c_bands before calling an iterative solver
            84 MiB given to the printing process from OS
            61 MiB allocation reported by mallinfo(arena+hblkhd)
          2619 MiB available memory on the node where the printing process lives
------------------
     c_bands:  4 eigenvalues not converged
     c_bands:  2 eigenvalues not converged
     c_bands:  3 eigenvalues not converged
     c_bands:  4 eigenvalues not converged
     c_bands:  1 eigenvalues not converged
     c_bands:  1 eigenvalues not converged
     c_bands:  1 eigenvalues not converged
     c_bands:  2 eigenvalues not converged
     c_bands:  2 eigenvalues not converged
     c_bands:  2 eigenvalues not converged
     c_bands:  4 eigenvalues not converged
     c_bands:  2 eigenvalues not converged
     c_bands:  4 eigenvalues not converged
     c_bands:  2 eigenvalues not converged
     c_bands:  2 eigenvalues not converged
     c_bands:  4 eigenvalues not converged
     c_bands:  4 eigenvalues not converged
     c_bands:  4 eigenvalues not converged
     c_bands:  1 eigenvalues not converged
     c_bands:  1 eigenvalues not converged
     c_bands:  1 eigenvalues not converged
     c_bands:  2 eigenvalues not converged
     c_bands:  2 eigenvalues not converged
     c_bands:  2 eigenvalues not converged
     c_bands:  2 eigenvalues not converged
     c_bands:  1 eigenvalues not converged
     c_bands:  2 eigenvalues not converged
     c_bands:  4 eigenvalues not converged
     ethr =  6.41E-06,  avg # of iterations =  8.4

     negative rho (up, down):  3.528E-05 0.000E+00

     total cpu time spent up to now is     1986.5 secs

     total energy              =     -71.79133126 Ry
     estimated scf accuracy    <       0.00011014 Ry

     iteration #  8     ecut=    65.00 Ry     beta= 0.70
     Davidson diagonalization with overlap

---- Real-time Memory Report at c_bands before calling an iterative solver
            84 MiB given to the printing process from OS
            61 MiB allocation reported by mallinfo(arena+hblkhd)
          2641 MiB available memory on the node where the printing process lives
------------------
     c_bands:  2 eigenvalues not converged
     c_bands:  2 eigenvalues not converged
     c_bands:  1 eigenvalues not converged
     c_bands:  2 eigenvalues not converged
     c_bands:  3 eigenvalues not converged
     c_bands:  2 eigenvalues not converged
     c_bands:  2 eigenvalues not converged
     c_bands:  1 eigenvalues not converged
     c_bands:  1 eigenvalues not converged
     c_bands:  2 eigenvalues not converged
     c_bands:  1 eigenvalues not converged
     c_bands:  2 eigenvalues not converged
     c_bands:  2 eigenvalues not converged
     c_bands:  1 eigenvalues not converged
     c_bands:  2 eigenvalues not converged
     ethr =  4.59E-07,  avg # of iterations =  9.2

     negative rho (up, down):  3.819E-05 0.000E+00

     total cpu time spent up to now is     2418.4 secs

     total energy              =     -71.79148609 Ry
     estimated scf accuracy    <       0.00006300 Ry

     iteration #  9     ecut=    65.00 Ry     beta= 0.70
     Davidson diagonalization with overlap

---- Real-time Memory Report at c_bands before calling an iterative solver
            84 MiB given to the printing process from OS
            61 MiB allocation reported by mallinfo(arena+hblkhd)
          2624 MiB available memory on the node where the printing process lives
------------------
     c_bands:  1 eigenvalues not converged
     c_bands:  1 eigenvalues not converged
     c_bands:  1 eigenvalues not converged
     c_bands:  1 eigenvalues not converged
     c_bands:  1 eigenvalues not converged
     c_bands:  2 eigenvalues not converged
     ethr =  2.62E-07,  avg # of iterations =  4.5

     negative rho (up, down):  4.056E-05 0.000E+00

     total cpu time spent up to now is     2636.7 secs

     total energy              =     -71.79153712 Ry
     estimated scf accuracy    <       0.00001397 Ry

     iteration # 10     ecut=    65.00 Ry     beta= 0.70
     Davidson diagonalization with overlap

---- Real-time Memory Report at c_bands before calling an iterative solver
            84 MiB given to the printing process from OS
            61 MiB allocation reported by mallinfo(arena+hblkhd)
          2617 MiB available memory on the node where the printing process lives
------------------
     ethr =  5.82E-08,  avg # of iterations =  6.2

     negative rho (up, down):  3.927E-05 0.000E+00

     total cpu time spent up to now is     3016.2 secs

     total energy              =     -71.79149006 Ry
     estimated scf accuracy    <       0.00010540 Ry

     iteration # 11     ecut=    65.00 Ry     beta= 0.70
     Davidson diagonalization with overlap

---- Real-time Memory Report at c_bands before calling an iterative solver
            84 MiB given to the printing process from OS
            61 MiB allocation reported by mallinfo(arena+hblkhd)
          2619 MiB available memory on the node where the printing process lives
------------------
     ethr =  5.82E-08,  avg # of iterations =  4.8

     negative rho (up, down):  3.888E-05 0.000E+00

     total cpu time spent up to now is     3295.4 secs

     total energy              =     -71.79149717 Ry
     estimated scf accuracy    <       0.00000619 Ry

     iteration # 12     ecut=    65.00 Ry     beta= 0.70
     Davidson diagonalization with overlap

---- Real-time Memory Report at c_bands before calling an iterative solver
            84 MiB given to the printing process from OS
            61 MiB allocation reported by mallinfo(arena+hblkhd)
          2609 MiB available memory on the node where the printing process lives
------------------
     ethr =  2.58E-08,  avg # of iterations =  3.6

     negative rho (up, down):  3.871E-05 0.000E+00

     total cpu time spent up to now is     3523.9 secs

     total energy              =     -71.79149813 Ry
     estimated scf accuracy    <       0.00000174 Ry

     iteration # 13     ecut=    65.00 Ry     beta= 0.70
     Davidson diagonalization with overlap

---- Real-time Memory Report at c_bands before calling an iterative solver
            84 MiB given to the printing process from OS
            61 MiB allocation reported by mallinfo(arena+hblkhd)
          2596 MiB available memory on the node where the printing process lives
------------------
     ethr =  7.25E-09,  avg # of iterations =  4.3

     negative rho (up, down):  3.865E-05 0.000E+00

     total cpu time spent up to now is     3737.2 secs

     total energy              =     -71.79149835 Ry
     estimated scf accuracy    <       0.00000099 Ry

     iteration # 14     ecut=    65.00 Ry     beta= 0.70
     Davidson diagonalization with overlap

---- Real-time Memory Report at c_bands before calling an iterative solver
            84 MiB given to the printing process from OS
            61 MiB allocation reported by mallinfo(arena+hblkhd)
          2588 MiB available memory on the node where the printing process lives
------------------
     ethr =  4.12E-09,  avg # of iterations =  2.6

     negative rho (up, down):  3.857E-05 0.000E+00

     total cpu time spent up to now is     3914.9 secs

     total energy              =     -71.79149849 Ry
     estimated scf accuracy    <       0.00000051 Ry

     iteration # 15     ecut=    65.00 Ry     beta= 0.70
     Davidson diagonalization with overlap

---- Real-time Memory Report at c_bands before calling an iterative solver
            84 MiB given to the printing process from OS
            61 MiB allocation reported by mallinfo(arena+hblkhd)
          2600 MiB available memory on the node where the printing process lives
------------------
     ethr =  2.14E-09,  avg # of iterations =  1.9

     negative rho (up, down):  3.836E-05 0.000E+00

     total cpu time spent up to now is     4099.6 secs

     total energy              =     -71.79149830 Ry
     estimated scf accuracy    <       0.00000048 Ry

     iteration # 16     ecut=    65.00 Ry     beta= 0.70
     Davidson diagonalization with overlap

---- Real-time Memory Report at c_bands before calling an iterative solver
            84 MiB given to the printing process from OS
            61 MiB allocation reported by mallinfo(arena+hblkhd)
          2881 MiB available memory on the node where the printing process lives
------------------
     ethr =  2.01E-09,  avg # of iterations =  3.9

     negative rho (up, down):  3.837E-05 0.000E+00

     total cpu time spent up to now is     4318.6 secs

     total energy              =     -71.79149835 Ry
     estimated scf accuracy    <       0.00000005 Ry

     iteration # 17     ecut=    65.00 Ry     beta= 0.70
     Davidson diagonalization with overlap

---- Real-time Memory Report at c_bands before calling an iterative solver
            84 MiB given to the printing process from OS
            61 MiB allocation reported by mallinfo(arena+hblkhd)
          2887 MiB available memory on the node where the printing process lives
------------------
     ethr =  2.25E-10,  avg # of iterations =  4.8

     negative rho (up, down):  3.837E-05 0.000E+00

     total cpu time spent up to now is     4607.0 secs

     total energy              =     -71.79149839 Ry
     estimated scf accuracy    <          1.6E-09 Ry

     iteration # 18     ecut=    65.00 Ry     beta= 0.70
     Davidson diagonalization with overlap

---- Real-time Memory Report at c_bands before calling an iterative solver
            84 MiB given to the printing process from OS
            61 MiB allocation reported by mallinfo(arena+hblkhd)
          2877 MiB available memory on the node where the printing process lives
------------------
     ethr =  6.57E-12,  avg # of iterations =  6.7

     negative rho (up, down):  3.837E-05 0.000E+00

     total cpu time spent up to now is     4988.9 secs

     total energy              =     -71.79149839 Ry
     estimated scf accuracy    <          1.4E-09 Ry

     iteration # 19     ecut=    65.00 Ry     beta= 0.70
     Davidson diagonalization with overlap

---- Real-time Memory Report at c_bands before calling an iterative solver
            84 MiB given to the printing process from OS
            61 MiB allocation reported by mallinfo(arena+hblkhd)
          3191 MiB available memory on the node where the printing process lives
------------------
     ethr =  6.02E-12,  avg # of iterations =  6.1

     negative rho (up, down):  3.839E-05 0.000E+00

     total cpu time spent up to now is     5346.2 secs

     total energy              =     -71.79149840 Ry
     estimated scf accuracy    <          8.9E-09 Ry

     iteration # 20     ecut=    65.00 Ry     beta= 0.70
     Davidson diagonalization with overlap

---- Real-time Memory Report at c_bands before calling an iterative solver
            84 MiB given to the printing process from OS
            61 MiB allocation reported by mallinfo(arena+hblkhd)
          3187 MiB available memory on the node where the printing process lives
------------------
     ethr =  6.02E-12,  avg # of iterations =  3.4

     negative rho (up, down):  3.839E-05 0.000E+00

     total cpu time spent up to now is     5543.1 secs

     total energy              =     -71.79149839 Ry
     estimated scf accuracy    <       0.00000002 Ry

     iteration # 21     ecut=    65.00 Ry     beta= 0.70
     Davidson diagonalization with overlap

---- Real-time Memory Report at c_bands before calling an iterative solver
            84 MiB given to the printing process from OS
            61 MiB allocation reported by mallinfo(arena+hblkhd)
          3184 MiB available memory on the node where the printing process lives
------------------
     ethr =  6.02E-12,  avg # of iterations =  5.6

     negative rho (up, down):  3.839E-05 0.000E+00

     total cpu time spent up to now is     5926.7 secs

     End of self-consistent calculation

          k = 0.0625 0.1083 0.0312 (  7992 PWs)   bands (ev):

   -19.3267 -19.3267 -13.3671 -13.3671 -13.3669 -13.3669 -11.9889 -11.9889
   -11.9882 -11.9882 -10.1096 -10.1096 -10.1093 -10.1093  -7.6387  -7.6387
    -3.4579  -3.4579  -3.2892  -3.2892  -1.0791  -1.0791  -1.0790  -1.0790
     0.9233   0.9233   0.9235   0.9235   3.1830   3.1830   5.4813   5.4813

     occupation numbers 
     1.0000   1.0000   1.0000   1.0000   1.0000   1.0000   1.0000   1.0000
     1.0000   1.0000   1.0000   1.0000   1.0000   1.0000   1.0000   1.0000
     1.0000   1.0000   1.0000   1.0000   1.0000   1.0000   1.0000   1.0000
     0.0000   0.0000   0.0000   0.0000   0.0000   0.0000   0.0000   0.0000

          k = 0.0625 0.1083 0.0938 (  8006 PWs)   bands (ev):

   -19.3267 -19.3267 -13.3671 -13.3671 -13.3669 -13.3669 -11.9889 -11.9889
   -11.9882 -11.9882 -10.1096 -10.1096 -10.1093 -10.1093  -7.6388  -7.6388
    -3.4578  -3.4578  -3.2892  -3.2892  -1.0791  -1.0791  -1.0790  -1.0790
     0.9233   0.9233   0.9235   0.9235   3.2791   3.2791   5.0718   5.0718

     occupation numbers 
     1.0000   1.0000   1.0000   1.0000   1.0000   1.0000   1.0000   1.0000
     1.0000   1.0000   1.0000   1.0000   1.0000   1.0000   1.0000   1.0000
     1.0000   1.0000   1.0000   1.0000   1.0000   1.0000   1.0000   1.0000
     0.0000   0.0000   0.0000   0.0000   0.0000   0.0000   0.0000   0.0000

          k = 0.0625 0.1083 0.1562 (  8012 PWs)   bands (ev):

   -19.3267 -19.3267 -13.3671 -13.3671 -13.3669 -13.3669 -11.9889 -11.9889
   -11.9882 -11.9882 -10.1096 -10.1096 -10.1093 -10.1093  -7.6389  -7.6389
    -3.4579  -3.4579  -3.2892  -3.2892  -1.0792  -1.0792  -1.0791  -1.0791
     0.9233   0.9233   0.9235   0.9235   3.4681   3.4681   4.5921   4.5921

     occupation numbers 
     1.0000   1.0000   1.0000   1.0000   1.0000   1.0000   1.0000   1.0000
     1.0000   1.0000   1.0000   1.0000   1.0000   1.0000   1.0000   1.0000
     1.0000   1.0000   1.0000   1.0000   1.0000   1.0000   1.0000   1.0000
     0.0000   0.0000   0.0000   0.0000   0.0000   0.0000   0.0000   0.0000

          k = 0.0625 0.1083 0.2188 (  8016 PWs)   bands (ev):

   -19.3267 -19.3267 -13.3671 -13.3671 -13.3669 -13.3669 -11.9889 -11.9889
   -11.9882 -11.9882 -10.1096 -10.1096 -10.1093 -10.1093  -7.6390  -7.6390
    -3.4579  -3.4579  -3.2893  -3.2893  -1.0792  -1.0792  -1.0791  -1.0791
     0.9232   0.9232   0.9235   0.9235   3.7323   3.7324   4.1698   4.1698

     occupation numbers 
     1.0000   1.0000   1.0000   1.0000   1.0000   1.0000   1.0000   1.0000
     1.0000   1.0000   1.0000   1.0000   1.0000   1.0000   1.0000   1.0000
     1.0000   1.0000   1.0000   1.0000   1.0000   1.0000   1.0000   1.0000
     0.0000   0.0000   0.0000   0.0000   0.0000   0.0000   0.0000   0.0000

          k = 0.0625 0.2526 0.0312 (  7995 PWs)   bands (ev):

   -19.0205 -19.0205 -14.7754 -14.7754 -13.9397 -13.9397 -12.3682 -12.3682
   -10.9361 -10.9361  -9.1268  -9.1268  -8.6416  -8.6416  -7.2698  -7.2698
    -4.5092  -4.5092  -3.8938  -3.8938  -2.4497  -2.4497  -1.8377  -1.8377
     1.4785   1.4785   2.3202   2.3202   3.6021   3.6022   5.8893   5.8893

     occupation numbers 
     1.0000   1.0000   1.0000   1.0000   1.0000   1.0000   1.0000   1.0000
     1.0000   1.0000   1.0000   1.0000   1.0000   1.0000   1.0000   1.0000
     1.0000   1.0000   1.0000   1.0000   1.0000   1.0000   1.0000   1.0000
     0.0000   0.0000   0.0000   0.0000   0.0000   0.0000   0.0000   0.0000

          k = 0.0625 0.2526 0.0938 (  8012 PWs)   bands (ev):

   -19.0205 -19.0205 -14.7754 -14.7754 -13.9397 -13.9397 -12.3682 -12.3682
   -10.9361 -10.9361  -9.1268  -9.1268  -8.6416  -8.6416  -7.2699  -7.2699
    -4.5092  -4.5092  -3.8938  -3.8938  -2.4498  -2.4498  -1.8377  -1.8377
     1.4784   1.4784   2.3202   2.3202   3.6977   3.6977   5.4830   5.4831

     occupation numbers 
     1.0000   1.0000   1.0000   1.0000   1.0000   1.0000   1.0000   1.0000
     1.0000   1.0000   1.0000   1.0000   1.0000   1.0000   1.0000   1.0000
     1.0000   1.0000   1.0000   1.0000   1.0000   1.0000   1.0000   1.0000
     0.0000   0.0000   0.0000   0.0000   0.0000   0.0000   0.0000   0.0000

          k = 0.0625 0.2526 0.1562 (  8003 PWs)   bands (ev):

   -19.0205 -19.0205 -14.7754 -14.7754 -13.9397 -13.9397 -12.3682 -12.3682
   -10.9361 -10.9361  -9.1268  -9.1268  -8.6416  -8.6416  -7.2700  -7.2700
    -4.5092  -4.5092  -3.8938  -3.8938  -2.4498  -2.4498  -1.8378  -1.8378
     1.4783   1.4783   2.3201   2.3201   3.8854   3.8854   5.0066   5.0066

     occupation numbers 
     1.0000   1.0000   1.0000   1.0000   1.0000   1.0000   1.0000   1.0000
     1.0000   1.0000   1.0000   1.0000   1.0000   1.0000   1.0000   1.0000
     1.0000   1.0000   1.0000   1.0000   1.0000   1.0000   1.0000   1.0000
     0.0000   0.0000   0.0000   0.0000   0.0000   0.0000   0.0000   0.0000

          k = 0.0625 0.2526 0.2188 (  8009 PWs)   bands (ev):

   -19.0205 -19.0205 -14.7754 -14.7754 -13.9397 -13.9397 -12.3682 -12.3682
   -10.9361 -10.9361  -9.1268  -9.1268  -8.6416  -8.6416  -7.2701  -7.2701
    -4.5092  -4.5092  -3.8938  -3.8938  -2.4499  -2.4499  -1.8378  -1.8378
     1.4783   1.4783   2.3201   2.3201   4.1464   4.1464   4.5886   4.5886

     occupation numbers 
     1.0000   1.0000   1.0000   1.0000   1.0000   1.0000   1.0000   1.0000
     1.0000   1.0000   1.0000   1.0000   1.0000   1.0000   1.0000   1.0000
     1.0000   1.0000   1.0000   1.0000   1.0000   1.0000   1.0000   1.0000
     0.0000   0.0000   0.0000   0.0000   0.0000   0.0000   0.0000   0.0000

          k = 0.0625 0.3969 0.0312 (  8000 PWs)   bands (ev):

   -18.4719 -18.4719 -16.0871 -16.0871 -14.3127 -14.3127 -12.7040 -12.7040
    -9.6715  -9.6715  -7.9533  -7.9533  -7.2519  -7.2519  -6.6137  -6.6137
    -5.9548  -5.9548  -4.8670  -4.8670  -3.8589  -3.8589  -2.3460  -2.3460
     1.7035   1.7035   3.9820   3.9820   4.3566   4.3566   6.6164   6.6164

     occupation numbers 
     1.0000   1.0000   1.0000   1.0000   1.0000   1.0000   1.0000   1.0000
     1.0000   1.0000   1.0000   1.0000   1.0000   1.0000   1.0000   1.0000
     1.0000   1.0000   1.0000   1.0000   1.0000   1.0000   1.0000   1.0000
     0.0000   0.0000   0.0000   0.0000   0.0000   0.0000   0.0000   0.0000

          k = 0.0625 0.3969 0.0938 (  7996 PWs)   bands (ev):

   -18.4719 -18.4719 -16.0871 -16.0871 -14.3127 -14.3127 -12.7040 -12.7040
    -9.6715  -9.6715  -7.9533  -7.9533  -7.2519  -7.2519  -6.6137  -6.6137
    -5.9548  -5.9548  -4.8670  -4.8670  -3.8589  -3.8589  -2.3460  -2.3460
     1.7034   1.7034   3.9819   3.9819   4.4511   4.4511   6.2188   6.2189

     occupation numbers 
     1.0000   1.0000   1.0000   1.0000   1.0000   1.0000   1.0000   1.0000
     1.0000   1.0000   1.0000   1.0000   1.0000   1.0000   1.0000   1.0000
     1.0000   1.0000   1.0000   1.0000   1.0000   1.0000   1.0000   1.0000
     0.0000   0.0000   0.0000   0.0000   0.0000   0.0000   0.0000   0.0000

          k = 0.0625 0.3969 0.1562 (  7997 PWs)   bands (ev):

   -18.4719 -18.4719 -16.0871 -16.0871 -14.3127 -14.3127 -12.7040 -12.7040
    -9.6715  -9.6715  -7.9533  -7.9533  -7.2519  -7.2519  -6.6139  -6.6139
    -5.9547  -5.9547  -4.8670  -4.8670  -3.8590  -3.8590  -2.3461  -2.3461
     1.7032   1.7032   3.9819   3.9819   4.6362   4.6363   5.7501   5.7501

     occupation numbers 
     1.0000   1.0000   1.0000   1.0000   1.0000   1.0000   1.0000   1.0000
     1.0000   1.0000   1.0000   1.0000   1.0000   1.0000   1.0000   1.0000
     1.0000   1.0000   1.0000   1.0000   1.0000   1.0000   1.0000   1.0000
     0.0000   0.0000   0.0000   0.0000   0.0000   0.0000   0.0000   0.0000

          k = 0.0625 0.3969 0.2188 (  8006 PWs)   bands (ev):

   -18.4719 -18.4719 -16.0871 -16.0871 -14.3127 -14.3127 -12.7040 -12.7040
    -9.6715  -9.6715  -7.9533  -7.9533  -7.2519  -7.2519  -6.6139  -6.6139
    -5.9547  -5.9547  -4.8670  -4.8670  -3.8591  -3.8591  -2.3461  -2.3461
     1.7031   1.7031   3.9819   3.9819   4.8915   4.8915   5.3403   5.3404

     occupation numbers 
     1.0000   1.0000   1.0000   1.0000   1.0000   1.0000   1.0000   1.0000
     1.0000   1.0000   1.0000   1.0000   1.0000   1.0000   1.0000   1.0000
     1.0000   1.0000   1.0000   1.0000   1.0000   1.0000   1.0000   1.0000
     0.0000   0.0000   0.0000   0.0000   0.0000   0.0000   0.0000   0.0000

          k = 0.0625 0.5413 0.0312 (  7999 PWs)   bands (ev):

   -17.6864 -17.6864 -17.2075 -17.2075 -14.4738 -14.4738 -12.8564 -12.8564
    -8.2493  -8.2493  -7.4950  -7.4950  -6.6923  -6.6923  -6.4991  -6.4991
    -6.0597  -6.0597  -5.6863  -5.6863  -5.1294  -5.1294  -2.5669  -2.5669
     1.7591   1.7591   5.4448   5.4448   5.7935   5.7935   6.1129   6.1136

     occupation numbers 
     1.0000   1.0000   1.0000   1.0000   1.0000   1.0000   1.0000   1.0000
     1.0000   1.0000   1.0000   1.0000   1.0000   1.0000   1.0000   1.0000
     1.0000   1.0000   1.0000   1.0000   1.0000   1.0000   1.0000   1.0000
     0.0000   0.0000   0.0000   0.0000   0.0000   0.0000   0.0000   0.0000

          k = 0.0625 0.5413 0.0938 (  7997 PWs)   bands (ev):

   -17.6864 -17.6864 -17.2075 -17.2075 -14.4738 -14.4738 -12.8564 -12.8564
    -8.2493  -8.2493  -7.4950  -7.4950  -6.6923  -6.6923  -6.4991  -6.4991
    -6.0597  -6.0597  -5.6863  -5.6863  -5.1295  -5.1295  -2.5670  -2.5670
     1.7590   1.7590   5.5373   5.5374   5.7930   5.7930   6.2047   6.7124

     occupation numbers 
     1.0000   1.0000   1.0000   1.0000   1.0000   1.0000   1.0000   1.0000
     1.0000   1.0000   1.0000   1.0000   1.0000   1.0000   1.0000   1.0000
     1.0000   1.0000   1.0000   1.0000   1.0000   1.0000   1.0000   1.0000
     0.0000   0.0000   0.0000   0.0000   0.0000   0.0000   0.0000   0.0000

          k = 0.0625 0.5413 0.1562 (  7998 PWs)   bands (ev):

   -17.6864 -17.6864 -17.2075 -17.2075 -14.4738 -14.4738 -12.8564 -12.8564
    -8.2493  -8.2493  -7.4950  -7.4950  -6.6923  -6.6923  -6.4991  -6.4991
    -6.0597  -6.0597  -5.6864  -5.6864  -5.1296  -5.1296  -2.5670  -2.5670
     1.7588   1.7588   5.7181   5.7181   5.7924   5.7924   6.3833   6.3834

     occupation numbers 
     1.0000   1.0000   1.0000   1.0000   1.0000   1.0000   1.0000   1.0000
     1.0000   1.0000   1.0000   1.0000   1.0000   1.0000   1.0000   1.0000
     1.0000   1.0000   1.0000   1.0000   1.0000   1.0000   1.0000   1.0000
     0.0000   0.0000   0.0000   0.0000   0.0000   0.0000   0.0000   0.0000

          k = 0.0625 0.5413 0.2188 (  7993 PWs)   bands (ev):

   -17.6864 -17.6864 -17.2075 -17.2075 -14.4738 -14.4738 -12.8564 -12.8564
    -8.2493  -8.2493  -7.4950  -7.4950  -6.6923  -6.6923  -6.4991  -6.4991
    -6.0597  -6.0597  -5.6865  -5.6865  -5.1297  -5.1297  -2.5670  -2.5670
     1.7587   1.7587   5.7922   5.7922   5.9645   5.9647   6.4095   6.4100

     occupation numbers 
     1.0000   1.0000   1.0000   1.0000   1.0000   1.0000   1.0000   1.0000
     1.0000   1.0000   1.0000   1.0000   1.0000   1.0000   1.0000   1.0000
     1.0000   1.0000   1.0000   1.0000   1.0000   1.0000   1.0000   1.0000
     0.0000   0.0000   0.0000   0.0000   0.0000   0.0000   0.0000   0.0000

          k = 0.0625-0.4691 0.0312 (  7992 PWs)   bands (ev):

   -18.1083 -18.1083 -16.6735 -16.6735 -14.4200 -14.4200 -12.8052 -12.8052
    -8.9773  -8.9773  -7.3280  -7.3280  -6.7639  -6.7639  -6.7251  -6.7251
    -6.1824  -6.1824  -5.4455  -5.4455  -4.5176  -4.5176  -2.4931  -2.4931
     1.7434   1.7434   4.8592   4.8592   4.8756   4.8756   6.8621   6.8625

     occupation numbers 
     1.0000   1.0000   1.0000   1.0000   1.0000   1.0000   1.0000   1.0000
     1.0000   1.0000   1.0000   1.0000   1.0000   1.0000   1.0000   1.0000
     1.0000   1.0000   1.0000   1.0000   1.0000   1.0000   1.0000   1.0000
     0.0000   0.0000   0.0000   0.0000   0.0000   0.0000   0.0000   0.0000

          k = 0.0625-0.4691 0.0938 (  8002 PWs)   bands (ev):

   -18.1083 -18.1083 -16.6735 -16.6735 -14.4200 -14.4200 -12.8052 -12.8052
    -8.9773  -8.9773  -7.3280  -7.3280  -6.7639  -6.7639  -6.7251  -6.7251
    -6.1825  -6.1825  -5.4455  -5.4455  -4.5177  -4.5177  -2.4932  -2.4932
     1.7433   1.7433   4.8755   4.8755   4.9528   4.9528   6.7030   6.7039

     occupation numbers 
     1.0000   1.0000   1.0000   1.0000   1.0000   1.0000   1.0000   1.0000
     1.0000   1.0000   1.0000   1.0000   1.0000   1.0000   1.0000   1.0000
     1.0000   1.0000   1.0000   1.0000   1.0000   1.0000   1.0000   1.0000
     0.0000   0.0000   0.0000   0.0000   0.0000   0.0000   0.0000   0.0000

          k = 0.0625-0.4691 0.1562 (  7995 PWs)   bands (ev):

   -18.1083 -18.1083 -16.6735 -16.6735 -14.4200 -14.4200 -12.8052 -12.8052
    -8.9773  -8.9773  -7.3280  -7.3280  -6.7639  -6.7639  -6.7251  -6.7251
    -6.1826  -6.1826  -5.4455  -5.4455  -4.5178  -4.5178  -2.4932  -2.4932
     1.7431   1.7431   4.8754   4.8754   5.1362   5.1362   6.2423   6.2424

     occupation numbers 
     1.0000   1.0000   1.0000   1.0000   1.0000   1.0000   1.0000   1.0000
     1.0000   1.0000   1.0000   1.0000   1.0000   1.0000   1.0000   1.0000
     1.0000   1.0000   1.0000   1.0000   1.0000   1.0000   1.0000   1.0000
     0.0000   0.0000   0.0000   0.0000   0.0000   0.0000   0.0000   0.0000

          k = 0.0625-0.4691 0.2188 (  7988 PWs)   bands (ev):

   -18.1083 -18.1083 -16.6735 -16.6735 -14.4200 -14.4200 -12.8052 -12.8052
    -8.9773  -8.9773  -7.3280  -7.3280  -6.7639  -6.7639  -6.7251  -6.7251
    -6.1827  -6.1827  -5.4455  -5.4455  -4.5179  -4.5179  -2.4932  -2.4932
     1.7430   1.7430   4.8753   4.8753   5.3875   5.3875   5.8390   5.8392

     occupation numbers 
     1.0000   1.0000   1.0000   1.0000   1.0000   1.0000   1.0000   1.0000
     1.0000   1.0000   1.0000   1.0000   1.0000   1.0000   1.0000   1.0000
     1.0000   1.0000   1.0000   1.0000   1.0000   1.0000   1.0000   1.0000
     0.0000   0.0000   0.0000   0.0000   0.0000   0.0000   0.0000   0.0000

          k = 0.0625-0.3248 0.0312 (  7999 PWs)   bands (ev):

   -18.7762 -18.7762 -15.4522 -15.4522 -14.1523 -14.1523 -12.5559 -12.5559
   -10.3261 -10.3261  -8.5566  -8.5566  -7.8999  -7.8999  -6.9769  -6.9769
    -5.2057  -5.2057  -4.3432  -4.3432  -3.1642  -3.1642  -2.1268  -2.1268
     1.6227   1.6227   3.1262   3.1262   3.9375   3.9375   6.2138   6.2141

     occupation numbers 
     1.0000   1.0000   1.0000   1.0000   1.0000   1.0000   1.0000   1.0000
     1.0000   1.0000   1.0000   1.0000   1.0000   1.0000   1.0000   1.0000
     1.0000   1.0000   1.0000   1.0000   1.0000   1.0000   1.0000   1.0000
     0.0000   0.0000   0.0000   0.0000   0.0000   0.0000   0.0000   0.0000

          k = 0.0625-0.3248 0.0938 (  7994 PWs)   bands (ev):

   -18.7762 -18.7762 -15.4522 -15.4522 -14.1523 -14.1523 -12.5559 -12.5559
   -10.3261 -10.3261  -8.5566  -8.5566  -7.8999  -7.8999  -6.9770  -6.9770
    -5.2057  -5.2057  -4.3432  -4.3432  -3.1643  -3.1643  -2.1268  -2.1268
     1.6226   1.6226   3.1262   3.1262   4.0326   4.0326   5.8109   5.8109

     occupation numbers 
     1.0000   1.0000   1.0000   1.0000   1.0000   1.0000   1.0000   1.0000
     1.0000   1.0000   1.0000   1.0000   1.0000   1.0000   1.0000   1.0000
     1.0000   1.0000   1.0000   1.0000   1.0000   1.0000   1.0000   1.0000
     0.0000   0.0000   0.0000   0.0000   0.0000   0.0000   0.0000   0.0000

          k = 0.0625-0.3248 0.1562 (  7996 PWs)   bands (ev):

   -18.7762 -18.7762 -15.4522 -15.4522 -14.1523 -14.1523 -12.5559 -12.5559
   -10.3261 -10.3261  -8.5566  -8.5566  -7.8999  -7.8999  -6.9771  -6.9771
    -5.2057  -5.2057  -4.3432  -4.3432  -3.1644  -3.1644  -2.1268  -2.1268
     1.6225   1.6225   3.1262   3.1262   4.2192   4.2192   5.3376   5.3376

     occupation numbers 
     1.0000   1.0000   1.0000   1.0000   1.0000   1.0000   1.0000   1.0000
     1.0000   1.0000   1.0000   1.0000   1.0000   1.0000   1.0000   1.0000
     1.0000   1.0000   1.0000   1.0000   1.0000   1.0000   1.0000   1.0000
     0.0000   0.0000   0.0000   0.0000   0.0000   0.0000   0.0000   0.0000

          k = 0.0625-0.3248 0.2188 (  8009 PWs)   bands (ev):

   -18.7762 -18.7762 -15.4522 -15.4522 -14.1523 -14.1523 -12.5560 -12.5560
   -10.3261 -10.3261  -8.5566  -8.5566  -7.8999  -7.8999  -6.9772  -6.9772
    -5.2057  -5.2057  -4.3432  -4.3432  -3.1644  -3.1644  -2.1269  -2.1269
     1.6225   1.6225   3.1261   3.1261   4.4777   4.4777   4.9231   4.9231

     occupation numbers 
     1.0000   1.0000   1.0000   1.0000   1.0000   1.0000   1.0000   1.0000
     1.0000   1.0000   1.0000   1.0000   1.0000   1.0000   1.0000   1.0000
     1.0000   1.0000   1.0000   1.0000   1.0000   1.0000   1.0000   1.0000
     0.0000   0.0000   0.0000   0.0000   0.0000   0.0000   0.0000   0.0000

          k = 0.0625-0.1804 0.0312 (  7996 PWs)   bands (ev):

   -19.2041 -19.2041 -14.0692 -14.0692 -13.6765 -13.6765 -12.1595 -12.1595
   -11.4956 -11.4956  -9.6511  -9.6511  -9.4103  -9.4103  -7.4908  -7.4908
    -3.9083  -3.9083  -3.5372  -3.5372  -1.7397  -1.7397  -1.4839  -1.4839
     1.2480   1.2480   1.5771   1.5771   3.3506   3.3506   5.6447   5.6448

     occupation numbers 
     1.0000   1.0000   1.0000   1.0000   1.0000   1.0000   1.0000   1.0000
     1.0000   1.0000   1.0000   1.0000   1.0000   1.0000   1.0000   1.0000
     1.0000   1.0000   1.0000   1.0000   1.0000   1.0000   1.0000   1.0000
     0.0000   0.0000   0.0000   0.0000   0.0000   0.0000   0.0000   0.0000

          k = 0.0625-0.1804 0.0938 (  8006 PWs)   bands (ev):

   -19.2041 -19.2041 -14.0692 -14.0692 -13.6765 -13.6765 -12.1595 -12.1595
   -11.4956 -11.4956  -9.6511  -9.6511  -9.4103  -9.4103  -7.4909  -7.4909
    -3.9083  -3.9083  -3.5372  -3.5372  -1.7398  -1.7398  -1.4839  -1.4839
     1.2480   1.2480   1.5771   1.5771   3.4465   3.4465   5.2365   5.2365

     occupation numbers 
     1.0000   1.0000   1.0000   1.0000   1.0000   1.0000   1.0000   1.0000
     1.0000   1.0000   1.0000   1.0000   1.0000   1.0000   1.0000   1.0000
     1.0000   1.0000   1.0000   1.0000   1.0000   1.0000   1.0000   1.0000
     0.0000   0.0000   0.0000   0.0000   0.0000   0.0000   0.0000   0.0000

          k = 0.0625-0.1804 0.1562 (  8010 PWs)   bands (ev):

   -19.2041 -19.2041 -14.0692 -14.0692 -13.6765 -13.6765 -12.1595 -12.1595
   -11.4956 -11.4956  -9.6511  -9.6511  -9.4103  -9.4103  -7.4910  -7.4910
    -3.9083  -3.9083  -3.5372  -3.5372  -1.7398  -1.7398  -1.4839  -1.4839
     1.2480   1.2480   1.5771   1.5771   3.6350   3.6350   4.7580   4.7580

     occupation numbers 
     1.0000   1.0000   1.0000   1.0000   1.0000   1.0000   1.0000   1.0000
     1.0000   1.0000   1.0000   1.0000   1.0000   1.0000   1.0000   1.0000
     1.0000   1.0000   1.0000   1.0000   1.0000   1.0000   1.0000   1.0000
     0.0000   0.0000   0.0000   0.0000   0.0000   0.0000   0.0000   0.0000

          k = 0.0625-0.1804 0.2188 (  8014 PWs)   bands (ev):

   -19.2041 -19.2041 -14.0692 -14.0692 -13.6765 -13.6765 -12.1595 -12.1595
   -11.4956 -11.4956  -9.6511  -9.6511  -9.4103  -9.4103  -7.4911  -7.4911
    -3.9083  -3.9083  -3.5372  -3.5372  -1.7399  -1.7399  -1.4840  -1.4840
     1.2479   1.2479   1.5771   1.5771   3.8980   3.8980   4.3374   4.3374

     occupation numbers 
     1.0000   1.0000   1.0000   1.0000   1.0000   1.0000   1.0000   1.0000
     1.0000   1.0000   1.0000   1.0000   1.0000   1.0000   1.0000   1.0000
     1.0000   1.0000   1.0000   1.0000   1.0000   1.0000   1.0000   1.0000
     0.0000   0.0000   0.0000   0.0000   0.0000   0.0000   0.0000   0.0000

          k = 0.0625-0.0361 0.0312 (  8013 PWs)   bands (ev):

   -19.3880 -19.3880 -13.0294 -13.0294 -12.8544 -12.8544 -12.2800 -12.2800
   -12.0345 -12.0345 -10.5192 -10.5192 -10.4516 -10.4516  -7.7128  -7.7128
    -3.2159  -3.2159  -3.1597  -3.1597  -0.6820  -0.6820  -0.6053  -0.6053
     0.4716   0.4716   0.5565   0.5565   3.0992   3.0992   5.3994   5.3995

     occupation numbers 
     1.0000   1.0000   1.0000   1.0000   1.0000   1.0000   1.0000   1.0000
     1.0000   1.0000   1.0000   1.0000   1.0000   1.0000   1.0000   1.0000
     1.0000   1.0000   1.0000   1.0000   0.9993   0.9993   0.9975   0.9975
     0.0026   0.0026   0.0006   0.0006   0.0000   0.0000   0.0000   0.0000

          k = 0.0625-0.0361 0.0938 (  8000 PWs)   bands (ev):

   -19.3880 -19.3880 -13.0294 -13.0294 -12.8544 -12.8544 -12.2800 -12.2800
   -12.0345 -12.0345 -10.5192 -10.5192 -10.4516 -10.4516  -7.7129  -7.7129
    -3.2159  -3.2159  -3.1597  -3.1597  -0.6820  -0.6820  -0.6053  -0.6053
     0.4716   0.4716   0.5565   0.5565   3.1954   3.1954   4.9895   4.9895

     occupation numbers 
     1.0000   1.0000   1.0000   1.0000   1.0000   1.0000   1.0000   1.0000
     1.0000   1.0000   1.0000   1.0000   1.0000   1.0000   1.0000   1.0000
     1.0000   1.0000   1.0000   1.0000   0.9993   0.9993   0.9975   0.9975
     0.0026   0.0026   0.0006   0.0006   0.0000   0.0000   0.0000   0.0000

          k = 0.0625-0.0361 0.1562 (  8000 PWs)   bands (ev):

   -19.3880 -19.3880 -13.0294 -13.0294 -12.8544 -12.8544 -12.2800 -12.2800
   -12.0345 -12.0345 -10.5192 -10.5192 -10.4516 -10.4516  -7.7130  -7.7130
    -3.2159  -3.2159  -3.1597  -3.1597  -0.6820  -0.6820  -0.6054  -0.6054
     0.4715   0.4715   0.5565   0.5565   3.3846   3.3846   4.5091   4.5091

     occupation numbers 
     1.0000   1.0000   1.0000   1.0000   1.0000   1.0000   1.0000   1.0000
     1.0000   1.0000   1.0000   1.0000   1.0000   1.0000   1.0000   1.0000
     1.0000   1.0000   1.0000   1.0000   0.9993   0.9993   0.9975   0.9975
     0.0026   0.0026   0.0006   0.0006   0.0000   0.0000   0.0000   0.0000

          k = 0.0625-0.0361 0.2188 (  8008 PWs)   bands (ev):

   -19.3880 -19.3880 -13.0294 -13.0294 -12.8544 -12.8544 -12.2800 -12.2800
   -12.0345 -12.0345 -10.5192 -10.5192 -10.4516 -10.4516  -7.7131  -7.7131
    -3.2159  -3.2159  -3.1598  -3.1598  -0.6821  -0.6821  -0.6054  -0.6054
     0.4715   0.4715   0.5564   0.5564   3.6496   3.6496   4.0860   4.0860

     occupation numbers 
     1.0000   1.0000   1.0000   1.0000   1.0000   1.0000   1.0000   1.0000
     1.0000   1.0000   1.0000   1.0000   1.0000   1.0000   1.0000   1.0000
     1.0000   1.0000   1.0000   1.0000   0.9993   0.9993   0.9975   0.9975
     0.0026   0.0026   0.0006   0.0006   0.0000   0.0000   0.0000   0.0000

          k = 0.1875 0.3248 0.0312 (  7998 PWs)   bands (ev):

   -18.5935 -18.5935 -15.2803 -15.2803 -15.2801 -15.2801 -11.1913 -11.1913
   -11.1905 -11.1905  -7.7031  -7.7031  -7.7027  -7.7027  -6.7588  -6.7588
    -5.8316  -5.8316  -4.4542  -4.4542  -3.0384  -3.0384  -3.0383  -3.0383
     2.7515   2.7515   2.7518   2.7518   4.1886   4.1886   6.4531   6.4532

     occupation numbers 
     1.0000   1.0000   1.0000   1.0000   1.0000   1.0000   1.0000   1.0000
     1.0000   1.0000   1.0000   1.0000   1.0000   1.0000   1.0000   1.0000
     1.0000   1.0000   1.0000   1.0000   1.0000   1.0000   1.0000   1.0000
     0.0000   0.0000   0.0000   0.0000   0.0000   0.0000   0.0000   0.0000

          k = 0.1875 0.3248 0.0938 (  8003 PWs)   bands (ev):

   -18.5935 -18.5935 -15.2803 -15.2803 -15.2801 -15.2801 -11.1913 -11.1913
   -11.1905 -11.1905  -7.7031  -7.7031  -7.7027  -7.7027  -6.7589  -6.7589
    -5.8316  -5.8316  -4.4542  -4.4542  -3.0384  -3.0384  -3.0384  -3.0384
     2.7515   2.7515   2.7518   2.7518   4.2832   4.2832   6.0540   6.0540

     occupation numbers 
     1.0000   1.0000   1.0000   1.0000   1.0000   1.0000   1.0000   1.0000
     1.0000   1.0000   1.0000   1.0000   1.0000   1.0000   1.0000   1.0000
     1.0000   1.0000   1.0000   1.0000   1.0000   1.0000   1.0000   1.0000
     0.0000   0.0000   0.0000   0.0000   0.0000   0.0000   0.0000   0.0000

          k = 0.1875 0.3248 0.1562 (  7997 PWs)   bands (ev):

   -18.5935 -18.5935 -15.2803 -15.2803 -15.2801 -15.2801 -11.1913 -11.1913
   -11.1905 -11.1905  -7.7031  -7.7031  -7.7027  -7.7027  -6.7590  -6.7590
    -5.8316  -5.8316  -4.4541  -4.4541  -3.0385  -3.0385  -3.0385  -3.0385
     2.7514   2.7514   2.7516   2.7516   4.4689   4.4689   5.5840   5.5840

     occupation numbers 
     1.0000   1.0000   1.0000   1.0000   1.0000   1.0000   1.0000   1.0000
     1.0000   1.0000   1.0000   1.0000   1.0000   1.0000   1.0000   1.0000
     1.0000   1.0000   1.0000   1.0000   1.0000   1.0000   1.0000   1.0000
     0.0000   0.0000   0.0000   0.0000   0.0000   0.0000   0.0000   0.0000

          k = 0.1875 0.3248 0.2188 (  8011 PWs)   bands (ev):

   -18.5935 -18.5935 -15.2803 -15.2803 -15.2801 -15.2801 -11.1913 -11.1913
   -11.1905 -11.1905  -7.7031  -7.7031  -7.7027  -7.7027  -6.7591  -6.7591
    -5.8316  -5.8316  -4.4541  -4.4541  -3.0385  -3.0385  -3.0385  -3.0385
     2.7513   2.7513   2.7516   2.7516   4.7252   4.7253   5.1728   5.1728

     occupation numbers 
     1.0000   1.0000   1.0000   1.0000   1.0000   1.0000   1.0000   1.0000
     1.0000   1.0000   1.0000   1.0000   1.0000   1.0000   1.0000   1.0000
     1.0000   1.0000   1.0000   1.0000   1.0000   1.0000   1.0000   1.0000
     0.0000   0.0000   0.0000   0.0000   0.0000   0.0000   0.0000   0.0000

          k = 0.1875 0.4691 0.0312 (  7989 PWs)   bands (ev):

   -17.9269 -17.9269 -16.4956 -16.4956 -15.5637 -15.5637 -11.3973 -11.3973
    -9.7780  -9.7780  -7.4160  -7.4160  -6.6925  -6.6925  -6.5795  -6.5795
    -5.9705  -5.9705  -5.2391  -5.2391  -4.3323  -4.3323  -3.3829  -3.3829
     2.9058   2.9058   4.4146   4.4146   5.1089   5.1090   7.0160   7.0162

     occupation numbers 
     1.0000   1.0000   1.0000   1.0000   1.0000   1.0000   1.0000   1.0000
     1.0000   1.0000   1.0000   1.0000   1.0000   1.0000   1.0000   1.0000
     1.0000   1.0000   1.0000   1.0000   1.0000   1.0000   1.0000   1.0000
     0.0000   0.0000   0.0000   0.0000   0.0000   0.0000   0.0000   0.0000

          k = 0.1875 0.4691 0.0938 (  7985 PWs)   bands (ev):

   -17.9269 -17.9269 -16.4956 -16.4956 -15.5637 -15.5637 -11.3973 -11.3973
    -9.7780  -9.7780  -7.4159  -7.4159  -6.6925  -6.6925  -6.5795  -6.5795
    -5.9706  -5.9706  -5.2391  -5.2391  -4.3324  -4.3324  -3.3829  -3.3829
     2.9056   2.9056   4.4143   4.4143   5.2017   5.2018   6.8480   6.8482

     occupation numbers 
     1.0000   1.0000   1.0000   1.0000   1.0000   1.0000   1.0000   1.0000
     1.0000   1.0000   1.0000   1.0000   1.0000   1.0000   1.0000   1.0000
     1.0000   1.0000   1.0000   1.0000   1.0000   1.0000   1.0000   1.0000
     0.0000   0.0000   0.0000   0.0000   0.0000   0.0000   0.0000   0.0000

          k = 0.1875 0.4691 0.1562 (  7990 PWs)   bands (ev):

   -17.9269 -17.9269 -16.4956 -16.4956 -15.5637 -15.5637 -11.3973 -11.3973
    -9.7780  -9.7780  -7.4159  -7.4159  -6.6925  -6.6925  -6.5795  -6.5795
    -5.9707  -5.9707  -5.2391  -5.2391  -4.3324  -4.3324  -3.3830  -3.3830
     2.9054   2.9054   4.4139   4.4139   5.3833   5.3834   6.4599   6.4599

     occupation numbers 
     1.0000   1.0000   1.0000   1.0000   1.0000   1.0000   1.0000   1.0000
     1.0000   1.0000   1.0000   1.0000   1.0000   1.0000   1.0000   1.0000
     1.0000   1.0000   1.0000   1.0000   1.0000   1.0000   1.0000   1.0000
     0.0000   0.0000   0.0000   0.0000   0.0000   0.0000   0.0000   0.0000

          k = 0.1875 0.4691 0.2188 (  7980 PWs)   bands (ev):

   -17.9269 -17.9269 -16.4956 -16.4956 -15.5637 -15.5637 -11.3973 -11.3973
    -9.7780  -9.7780  -7.4159  -7.4159  -6.6925  -6.6925  -6.5795  -6.5795
    -5.9708  -5.9708  -5.2391  -5.2391  -4.3325  -4.3325  -3.3830  -3.3830
     2.9052   2.9052   4.4136   4.4136   5.6316   5.6316   6.0740   6.0745

     occupation numbers 
     1.0000   1.0000   1.0000   1.0000   1.0000   1.0000   1.0000   1.0000
     1.0000   1.0000   1.0000   1.0000   1.0000   1.0000   1.0000   1.0000
     1.0000   1.0000   1.0000   1.0000   1.0000   1.0000   1.0000   1.0000
     0.0000   0.0000   0.0000   0.0000   0.0000   0.0000   0.0000   0.0000

          k = 0.1875 0.6134 0.0312 (  7999 PWs)   bands (ev):

   -17.5059 -17.5059 -17.0282 -17.0282 -15.6206 -15.6206 -11.4410 -11.4410
    -9.0137  -9.0137  -8.2224  -8.2224  -6.3161  -6.3161  -6.1875  -6.1875
    -5.6988  -5.6988  -5.4798  -5.4798  -4.9311  -4.9311  -3.4529  -3.4529
     2.9277   2.9277   5.3092   5.3092   5.6933   5.6933   6.2112   6.2112

     occupation numbers 
     1.0000   1.0000   1.0000   1.0000   1.0000   1.0000   1.0000   1.0000
     1.0000   1.0000   1.0000   1.0000   1.0000   1.0000   1.0000   1.0000
     1.0000   1.0000   1.0000   1.0000   1.0000   1.0000   1.0000   1.0000
     0.0000   0.0000   0.0000   0.0000   0.0000   0.0000   0.0000   0.0000

          k = 0.1875 0.6134 0.0938 (  7990 PWs)   bands (ev):

   -17.5059 -17.5059 -17.0282 -17.0282 -15.6206 -15.6206 -11.4410 -11.4410
    -9.0137  -9.0137  -8.2224  -8.2224  -6.3161  -6.3161  -6.1875  -6.1875
    -5.6988  -5.6988  -5.4799  -5.4799  -4.9312  -4.9312  -3.4530  -3.4530
     2.9275   2.9275   5.3081   5.3081   5.7826   5.7826   6.2120   6.2121

     occupation numbers 
     1.0000   1.0000   1.0000   1.0000   1.0000   1.0000   1.0000   1.0000
     1.0000   1.0000   1.0000   1.0000   1.0000   1.0000   1.0000   1.0000
     1.0000   1.0000   1.0000   1.0000   1.0000   1.0000   1.0000   1.0000
     0.0000   0.0000   0.0000   0.0000   0.0000   0.0000   0.0000   0.0000

          k = 0.1875 0.6134 0.1562 (  7983 PWs)   bands (ev):

   -17.5059 -17.5059 -17.0282 -17.0282 -15.6206 -15.6206 -11.4410 -11.4410
    -9.0137  -9.0137  -8.2224  -8.2224  -6.3161  -6.3161  -6.1875  -6.1875
    -5.6988  -5.6988  -5.4800  -5.4800  -4.9313  -4.9313  -3.4530  -3.4530
     2.9272   2.9272   5.3066   5.3066   5.9525   5.9526   6.2159   6.2160

     occupation numbers 
     1.0000   1.0000   1.0000   1.0000   1.0000   1.0000   1.0000   1.0000
     1.0000   1.0000   1.0000   1.0000   1.0000   1.0000   1.0000   1.0000
     1.0000   1.0000   1.0000   1.0000   1.0000   1.0000   1.0000   1.0000
     0.0000   0.0000   0.0000   0.0000   0.0000   0.0000   0.0000   0.0000

          k = 0.1875 0.6134 0.2188 (  7965 PWs)   bands (ev):

   -17.5059 -17.5059 -17.0282 -17.0282 -15.6205 -15.6205 -11.4410 -11.4410
    -9.0137  -9.0137  -8.2224  -8.2224  -6.3161  -6.3161  -6.1875  -6.1875
    -5.6988  -5.6988  -5.4800  -5.4800  -4.9314  -4.9314  -3.4530  -3.4530
     2.9271   2.9271   5.3056   5.3057   6.1396   6.1397   6.2504   6.2506

     occupation numbers 
     1.0000   1.0000   1.0000   1.0000   1.0000   1.0000   1.0000   1.0000
     1.0000   1.0000   1.0000   1.0000   1.0000   1.0000   1.0000   1.0000
     1.0000   1.0000   1.0000   1.0000   1.0000   1.0000   1.0000   1.0000
     0.0000   0.0000   0.0000   0.0000   0.0000   0.0000   0.0000   0.0000

          k = 0.1875-0.3969 0.0312 (  8004 PWs)   bands (ev):

   -18.2898 -18.2898 -15.9113 -15.9113 -15.4501 -15.4501 -11.3120 -11.3120
   -10.5064 -10.5064  -7.2014  -7.2014  -7.0638  -7.0638  -6.6110  -6.6110
    -6.3981  -6.3981  -4.8208  -4.8208  -3.6950  -3.6950  -3.2439  -3.2439
     2.8529   2.8529   3.5540   3.5540   4.6071   4.6071   6.8408   6.8410

     occupation numbers 
     1.0000   1.0000   1.0000   1.0000   1.0000   1.0000   1.0000   1.0000
     1.0000   1.0000   1.0000   1.0000   1.0000   1.0000   1.0000   1.0000
     1.0000   1.0000   1.0000   1.0000   1.0000   1.0000   1.0000   1.0000
     0.0000   0.0000   0.0000   0.0000   0.0000   0.0000   0.0000   0.0000

          k = 0.1875-0.3969 0.0938 (  8000 PWs)   bands (ev):

   -18.2898 -18.2898 -15.9113 -15.9113 -15.4501 -15.4501 -11.3120 -11.3120
   -10.5064 -10.5064  -7.2014  -7.2014  -7.0638  -7.0638  -6.6110  -6.6110
    -6.3982  -6.3982  -4.8208  -4.8208  -3.6950  -3.6950  -3.2440  -3.2440
     2.8527   2.8527   3.5538   3.5538   4.7010   4.7011   6.4539   6.4542

     occupation numbers 
     1.0000   1.0000   1.0000   1.0000   1.0000   1.0000   1.0000   1.0000
     1.0000   1.0000   1.0000   1.0000   1.0000   1.0000   1.0000   1.0000
     1.0000   1.0000   1.0000   1.0000   1.0000   1.0000   1.0000   1.0000
     0.0000   0.0000   0.0000   0.0000   0.0000   0.0000   0.0000   0.0000

          k = 0.1875-0.3969 0.1562 (  7991 PWs)   bands (ev):

   -18.2898 -18.2898 -15.9113 -15.9113 -15.4501 -15.4501 -11.3120 -11.3120
   -10.5064 -10.5064  -7.2014  -7.2014  -7.0638  -7.0638  -6.6110  -6.6110
    -6.3983  -6.3983  -4.8208  -4.8208  -3.6951  -3.6951  -3.2440  -3.2440
     2.8526   2.8526   3.5537   3.5537   4.8851   4.8852   5.9923   5.9923

     occupation numbers 
     1.0000   1.0000   1.0000   1.0000   1.0000   1.0000   1.0000   1.0000
     1.0000   1.0000   1.0000   1.0000   1.0000   1.0000   1.0000   1.0000
     1.0000   1.0000   1.0000   1.0000   1.0000   1.0000   1.0000   1.0000
     0.0000   0.0000   0.0000   0.0000   0.0000   0.0000   0.0000   0.0000

          k = 0.1875-0.3969 0.2188 (  7996 PWs)   bands (ev):

   -18.2898 -18.2898 -15.9113 -15.9113 -15.4501 -15.4501 -11.3120 -11.3120
   -10.5064 -10.5064  -7.2014  -7.2014  -7.0638  -7.0638  -6.6110  -6.6110
    -6.3984  -6.3984  -4.8208  -4.8208  -3.6952  -3.6952  -3.2441  -3.2441
     2.8525   2.8525   3.5536   3.5536   5.1378   5.1379   5.5873   5.5873

     occupation numbers 
     1.0000   1.0000   1.0000   1.0000   1.0000   1.0000   1.0000   1.0000
     1.0000   1.0000   1.0000   1.0000   1.0000   1.0000   1.0000   1.0000
     1.0000   1.0000   1.0000   1.0000   1.0000   1.0000   1.0000   1.0000
     0.0000   0.0000   0.0000   0.0000   0.0000   0.0000   0.0000   0.0000

          k = 0.1875-0.2526 0.0312 (  8001 PWs)   bands (ev):

   -18.8372 -18.8372 -15.0549 -15.0549 -14.6123 -14.6123 -11.8212 -11.8212
   -11.0493 -11.0493  -8.4227  -8.4227  -8.1864  -8.1864  -7.0500  -7.0500
    -5.1133  -5.1133  -4.1457  -4.1457  -2.7707  -2.7707  -2.3966  -2.3966
     2.0401   2.0401   2.5802   2.5802   3.8535   3.8535   6.1325   6.1325

     occupation numbers 
     1.0000   1.0000   1.0000   1.0000   1.0000   1.0000   1.0000   1.0000
     1.0000   1.0000   1.0000   1.0000   1.0000   1.0000   1.0000   1.0000
     1.0000   1.0000   1.0000   1.0000   1.0000   1.0000   1.0000   1.0000
     0.0000   0.0000   0.0000   0.0000   0.0000   0.0000   0.0000   0.0000

          k = 0.1875-0.2526 0.0938 (  7996 PWs)   bands (ev):

   -18.8372 -18.8372 -15.0548 -15.0548 -14.6123 -14.6123 -11.8212 -11.8212
   -11.0493 -11.0493  -8.4227  -8.4227  -8.1864  -8.1864  -7.0501  -7.0501
    -5.1133  -5.1133  -4.1457  -4.1457  -2.7708  -2.7708  -2.3967  -2.3967
     2.0401   2.0401   2.5802   2.5802   3.9487   3.9487   5.7286   5.7287

     occupation numbers 
     1.0000   1.0000   1.0000   1.0000   1.0000   1.0000   1.0000   1.0000
     1.0000   1.0000   1.0000   1.0000   1.0000   1.0000   1.0000   1.0000
     1.0000   1.0000   1.0000   1.0000   1.0000   1.0000   1.0000   1.0000
     0.0000   0.0000   0.0000   0.0000   0.0000   0.0000   0.0000   0.0000

          k = 0.1875-0.2526 0.1562 (  7996 PWs)   bands (ev):

   -18.8372 -18.8372 -15.0549 -15.0549 -14.6123 -14.6123 -11.8212 -11.8212
   -11.0494 -11.0494  -8.4227  -8.4227  -8.1864  -8.1864  -7.0502  -7.0502
    -5.1133  -5.1133  -4.1457  -4.1457  -2.7708  -2.7708  -2.3967  -2.3967
     2.0400   2.0400   2.5801   2.5801   4.1356   4.1356   5.2546   5.2546

     occupation numbers 
     1.0000   1.0000   1.0000   1.0000   1.0000   1.0000   1.0000   1.0000
     1.0000   1.0000   1.0000   1.0000   1.0000   1.0000   1.0000   1.0000
     1.0000   1.0000   1.0000   1.0000   1.0000   1.0000   1.0000   1.0000
     0.0000   0.0000   0.0000   0.0000   0.0000   0.0000   0.0000   0.0000

          k = 0.1875-0.2526 0.2188 (  8000 PWs)   bands (ev):

   -18.8372 -18.8372 -15.0549 -15.0549 -14.6123 -14.6123 -11.8212 -11.8212
   -11.0493 -11.0493  -8.4227  -8.4227  -8.1864  -8.1864  -7.0503  -7.0503
    -5.1132  -5.1132  -4.1457  -4.1457  -2.7709  -2.7709  -2.3968  -2.3968
     2.0399   2.0399   2.5801   2.5801   4.3946   4.3946   4.8393   4.8393

     occupation numbers 
     1.0000   1.0000   1.0000   1.0000   1.0000   1.0000   1.0000   1.0000
     1.0000   1.0000   1.0000   1.0000   1.0000   1.0000   1.0000   1.0000
     1.0000   1.0000   1.0000   1.0000   1.0000   1.0000   1.0000   1.0000
     0.0000   0.0000   0.0000   0.0000   0.0000   0.0000   0.0000   0.0000

          k = 0.1875-0.1083 0.0312 (  8005 PWs)   bands (ev):

   -19.1428 -19.1428 -14.4445 -14.4445 -13.4725 -13.4725 -12.6298 -12.6298
   -11.0188 -11.0188  -9.6119  -9.6119  -9.0562  -9.0562  -7.4170  -7.4170
    -4.0934  -4.0934  -3.6848  -3.6848  -2.0928  -2.0928  -1.4914  -1.4914
     1.1802   1.1802   1.9722   1.9722   3.4345   3.4345   5.7264   5.7264

     occupation numbers 
     1.0000   1.0000   1.0000   1.0000   1.0000   1.0000   1.0000   1.0000
     1.0000   1.0000   1.0000   1.0000   1.0000   1.0000   1.0000   1.0000
     1.0000   1.0000   1.0000   1.0000   1.0000   1.0000   1.0000   1.0000
     0.0000   0.0000   0.0000   0.0000   0.0000   0.0000   0.0000   0.0000

          k = 0.1875-0.1083 0.0938 (  8008 PWs)   bands (ev):

   -19.1428 -19.1428 -14.4445 -14.4445 -13.4725 -13.4725 -12.6298 -12.6298
   -11.0188 -11.0188  -9.6119  -9.6119  -9.0562  -9.0562  -7.4171  -7.4171
    -4.0934  -4.0934  -3.6848  -3.6848  -2.0929  -2.0929  -1.4914  -1.4914
     1.1802   1.1802   1.9722   1.9722   3.5303   3.5303   5.3188   5.3188

     occupation numbers 
     1.0000   1.0000   1.0000   1.0000   1.0000   1.0000   1.0000   1.0000
     1.0000   1.0000   1.0000   1.0000   1.0000   1.0000   1.0000   1.0000
     1.0000   1.0000   1.0000   1.0000   1.0000   1.0000   1.0000   1.0000
     0.0000   0.0000   0.0000   0.0000   0.0000   0.0000   0.0000   0.0000

          k = 0.1875-0.1083 0.1562 (  8016 PWs)   bands (ev):

   -19.1428 -19.1428 -14.4445 -14.4445 -13.4725 -13.4725 -12.6298 -12.6298
   -11.0188 -11.0188  -9.6119  -9.6119  -9.0562  -9.0562  -7.4172  -7.4172
    -4.0934  -4.0934  -3.6848  -3.6848  -2.0929  -2.0929  -1.4914  -1.4914
     1.1801   1.1801   1.9721   1.9721   3.7185   3.7185   4.8409   4.8409

     occupation numbers 
     1.0000   1.0000   1.0000   1.0000   1.0000   1.0000   1.0000   1.0000
     1.0000   1.0000   1.0000   1.0000   1.0000   1.0000   1.0000   1.0000
     1.0000   1.0000   1.0000   1.0000   1.0000   1.0000   1.0000   1.0000
     0.0000   0.0000   0.0000   0.0000   0.0000   0.0000   0.0000   0.0000

          k = 0.1875-0.1083 0.2188 (  8012 PWs)   bands (ev):

   -19.1428 -19.1428 -14.4445 -14.4445 -13.4725 -13.4725 -12.6298 -12.6298
   -11.0188 -11.0188  -9.6120  -9.6120  -9.0562  -9.0562  -7.4173  -7.4173
    -4.0934  -4.0934  -3.6848  -3.6848  -2.0930  -2.0930  -1.4915  -1.4915
     1.1801   1.1801   1.9721   1.9721   3.9808   3.9808   4.4211   4.4212

     occupation numbers 
     1.0000   1.0000   1.0000   1.0000   1.0000   1.0000   1.0000   1.0000
     1.0000   1.0000   1.0000   1.0000   1.0000   1.0000   1.0000   1.0000
     1.0000   1.0000   1.0000   1.0000   1.0000   1.0000   1.0000   1.0000
     0.0000   0.0000   0.0000   0.0000   0.0000   0.0000   0.0000   0.0000

          k = 0.3125 0.5413 0.0312 (  7987 PWs)   bands (ev):

   -17.1468 -17.1468 -16.6717 -16.6717 -16.6714 -16.6714  -9.8685  -9.8685
    -9.8676  -9.8676  -9.0570  -9.0570  -5.9595  -5.9595  -5.9583  -5.9583
    -5.6875  -5.6875  -5.0714  -5.0714  -4.5406  -4.5406  -4.5405  -4.5405
     4.5504   4.5504   4.5507   4.5507   5.4222   5.4222   6.1915   6.1916

     occupation numbers 
     1.0000   1.0000   1.0000   1.0000   1.0000   1.0000   1.0000   1.0000
     1.0000   1.0000   1.0000   1.0000   1.0000   1.0000   1.0000   1.0000
     1.0000   1.0000   1.0000   1.0000   1.0000   1.0000   1.0000   1.0000
     0.0000   0.0000   0.0000   0.0000   0.0000   0.0000   0.0000   0.0000

          k = 0.3125 0.5413 0.0938 (  7980 PWs)   bands (ev):

   -17.1468 -17.1468 -16.6717 -16.6717 -16.6714 -16.6714  -9.8685  -9.8685
    -9.8676  -9.8676  -9.0570  -9.0570  -5.9595  -5.9595  -5.9583  -5.9583
    -5.6875  -5.6875  -5.0714  -5.0714  -4.5406  -4.5406  -4.5406  -4.5406
     4.5498   4.5498   4.5501   4.5501   5.4199   5.4199   6.2851   6.2851

     occupation numbers 
     1.0000   1.0000   1.0000   1.0000   1.0000   1.0000   1.0000   1.0000
     1.0000   1.0000   1.0000   1.0000   1.0000   1.0000   1.0000   1.0000
     1.0000   1.0000   1.0000   1.0000   1.0000   1.0000   1.0000   1.0000
     0.0000   0.0000   0.0000   0.0000   0.0000   0.0000   0.0000   0.0000

          k = 0.3125 0.5413 0.1562 (  7970 PWs)   bands (ev):

   -17.1468 -17.1468 -16.6717 -16.6717 -16.6714 -16.6714  -9.8685  -9.8685
    -9.8676  -9.8676  -9.0570  -9.0570  -5.9595  -5.9595  -5.9583  -5.9583
    -5.6875  -5.6875  -5.0715  -5.0715  -4.5407  -4.5407  -4.5407  -4.5407
     4.5490   4.5490   4.5493   4.5493   5.4169   5.4170   6.4648   6.4650

     occupation numbers 
     1.0000   1.0000   1.0000   1.0000   1.0000   1.0000   1.0000   1.0000
     1.0000   1.0000   1.0000   1.0000   1.0000   1.0000   1.0000   1.0000
     1.0000   1.0000   1.0000   1.0000   1.0000   1.0000   1.0000   1.0000
     0.0000   0.0000   0.0000   0.0000   0.0000   0.0000   0.0000   0.0000

          k = 0.3125 0.5413 0.2188 (  7958 PWs)   bands (ev):

   -17.1468 -17.1468 -16.6717 -16.6717 -16.6714 -16.6714  -9.8685  -9.8685
    -9.8676  -9.8676  -9.0570  -9.0570  -5.9595  -5.9595  -5.9583  -5.9583
    -5.6875  -5.6875  -5.0716  -5.0716  -4.5408  -4.5408  -4.5407  -4.5407
     4.5484   4.5484   4.5487   4.5487   5.4151   5.4151   6.6977   6.6981

     occupation numbers 
     1.0000   1.0000   1.0000   1.0000   1.0000   1.0000   1.0000   1.0000
     1.0000   1.0000   1.0000   1.0000   1.0000   1.0000   1.0000   1.0000
     1.0000   1.0000   1.0000   1.0000   1.0000   1.0000   1.0000   1.0000
     0.0000   0.0000   0.0000   0.0000   0.0000   0.0000   0.0000   0.0000

          k = 0.3125 0.6856 0.0312 (  7977 PWs)   bands (ev):

   -17.5657 -17.5657 -16.6129 -16.6129 -16.1425 -16.1425 -10.6518 -10.6518
    -9.8364  -9.8364  -8.2329  -8.2329  -6.2585  -6.2585  -6.2186  -6.2186
    -5.5506  -5.5506  -5.4478  -5.4478  -4.4708  -4.4708  -3.9706  -3.9706
     3.6997   3.6997   4.5091   4.5091   5.6089   5.6089   6.2782   6.2783

     occupation numbers 
     1.0000   1.0000   1.0000   1.0000   1.0000   1.0000   1.0000   1.0000
     1.0000   1.0000   1.0000   1.0000   1.0000   1.0000   1.0000   1.0000
     1.0000   1.0000   1.0000   1.0000   1.0000   1.0000   1.0000   1.0000
     0.0000   0.0000   0.0000   0.0000   0.0000   0.0000   0.0000   0.0000

          k = 0.3125 0.6856 0.0938 (  7982 PWs)   bands (ev):

   -17.5657 -17.5657 -16.6129 -16.6129 -16.1425 -16.1425 -10.6518 -10.6518
    -9.8364  -9.8364  -8.2329  -8.2329  -6.2585  -6.2585  -6.2186  -6.2186
    -5.5507  -5.5507  -5.4478  -5.4478  -4.4709  -4.4709  -3.9706  -3.9706
     3.6995   3.6995   4.5086   4.5086   5.6986   5.6986   6.2771   6.2772

     occupation numbers 
     1.0000   1.0000   1.0000   1.0000   1.0000   1.0000   1.0000   1.0000
     1.0000   1.0000   1.0000   1.0000   1.0000   1.0000   1.0000   1.0000
     1.0000   1.0000   1.0000   1.0000   1.0000   1.0000   1.0000   1.0000
     0.0000   0.0000   0.0000   0.0000   0.0000   0.0000   0.0000   0.0000

          k = 0.3125 0.6856 0.1562 (  7992 PWs)   bands (ev):

   -17.5657 -17.5657 -16.6129 -16.6129 -16.1425 -16.1425 -10.6518 -10.6518
    -9.8364  -9.8364  -8.2329  -8.2329  -6.2585  -6.2585  -6.2186  -6.2186
    -5.5508  -5.5508  -5.4478  -5.4478  -4.4710  -4.4710  -3.9707  -3.9707
     3.6991   3.6991   4.5079   4.5079   5.8714   5.8715   6.2727   6.2728

     occupation numbers 
     1.0000   1.0000   1.0000   1.0000   1.0000   1.0000   1.0000   1.0000
     1.0000   1.0000   1.0000   1.0000   1.0000   1.0000   1.0000   1.0000
     1.0000   1.0000   1.0000   1.0000   1.0000   1.0000   1.0000   1.0000
     0.0000   0.0000   0.0000   0.0000   0.0000   0.0000   0.0000   0.0000

          k = 0.3125 0.6856 0.2188 (  7969 PWs)   bands (ev):

   -17.5657 -17.5657 -16.6129 -16.6129 -16.1425 -16.1425 -10.6518 -10.6518
    -9.8364  -9.8364  -8.2329  -8.2329  -6.2585  -6.2585  -6.2186  -6.2186
    -5.5509  -5.5509  -5.4478  -5.4478  -4.4710  -4.4710  -3.9708  -3.9708
     3.6989   3.6989   4.5075   4.5075   6.0979   6.0979   6.2468   6.2469

     occupation numbers 
     1.0000   1.0000   1.0000   1.0000   1.0000   1.0000   1.0000   1.0000
     1.0000   1.0000   1.0000   1.0000   1.0000   1.0000   1.0000   1.0000
     1.0000   1.0000   1.0000   1.0000   1.0000   1.0000   1.0000   1.0000
     0.0000   0.0000   0.0000   0.0000   0.0000   0.0000   0.0000   0.0000

          k = 0.3125-0.3248 0.0312 (  7998 PWs)   bands (ev):

   -18.2293 -18.2293 -16.3202 -16.3202 -14.9437 -14.9437 -12.0918 -12.0918
    -9.7076  -9.7076  -7.3056  -7.3056  -6.9138  -6.9138  -6.6381  -6.6381
    -6.3260  -6.3260  -5.0534  -5.0534  -4.1271  -4.1271  -2.8167  -2.8167
     2.2153   2.2153   4.2467   4.2467   4.6912   4.6913   6.9229   6.9230

     occupation numbers 
     1.0000   1.0000   1.0000   1.0000   1.0000   1.0000   1.0000   1.0000
     1.0000   1.0000   1.0000   1.0000   1.0000   1.0000   1.0000   1.0000
     1.0000   1.0000   1.0000   1.0000   1.0000   1.0000   1.0000   1.0000
     0.0000   0.0000   0.0000   0.0000   0.0000   0.0000   0.0000   0.0000

          k = 0.3125-0.3248 0.0938 (  8003 PWs)   bands (ev):

   -18.2293 -18.2293 -16.3202 -16.3202 -14.9437 -14.9437 -12.0918 -12.0918
    -9.7076  -9.7076  -7.3056  -7.3056  -6.9138  -6.9138  -6.6381  -6.6381
    -6.3261  -6.3261  -5.0534  -5.0534  -4.1271  -4.1271  -2.8167  -2.8167
     2.2152   2.2152   4.2465   4.2465   4.7851   4.7851   6.5373   6.5375

     occupation numbers 
     1.0000   1.0000   1.0000   1.0000   1.0000   1.0000   1.0000   1.0000
     1.0000   1.0000   1.0000   1.0000   1.0000   1.0000   1.0000   1.0000
     1.0000   1.0000   1.0000   1.0000   1.0000   1.0000   1.0000   1.0000
     0.0000   0.0000   0.0000   0.0000   0.0000   0.0000   0.0000   0.0000

          k = 0.3125-0.3248 0.1562 (  7997 PWs)   bands (ev):

   -18.2293 -18.2293 -16.3202 -16.3202 -14.9437 -14.9437 -12.0918 -12.0918
    -9.7076  -9.7076  -7.3056  -7.3056  -6.9138  -6.9138  -6.6381  -6.6381
    -6.3262  -6.3262  -5.0534  -5.0534  -4.1272  -4.1272  -2.8168  -2.8168
     2.2150   2.2150   4.2464   4.2464   4.9689   4.9690   6.0758   6.0759

     occupation numbers 
     1.0000   1.0000   1.0000   1.0000   1.0000   1.0000   1.0000   1.0000
     1.0000   1.0000   1.0000   1.0000   1.0000   1.0000   1.0000   1.0000
     1.0000   1.0000   1.0000   1.0000   1.0000   1.0000   1.0000   1.0000
     0.0000   0.0000   0.0000   0.0000   0.0000   0.0000   0.0000   0.0000

          k = 0.3125-0.3248 0.2188 (  7995 PWs)   bands (ev):

   -18.2293 -18.2293 -16.3202 -16.3202 -14.9437 -14.9437 -12.0918 -12.0918
    -9.7076  -9.7076  -7.3056  -7.3056  -6.9138  -6.9138  -6.6381  -6.6381
    -6.3263  -6.3263  -5.0534  -5.0534  -4.1273  -4.1273  -2.8168  -2.8168
     2.2149   2.2149   4.2463   4.2463   5.2213   5.2213   5.6716   5.6717

     occupation numbers 
     1.0000   1.0000   1.0000   1.0000   1.0000   1.0000   1.0000   1.0000
     1.0000   1.0000   1.0000   1.0000   1.0000   1.0000   1.0000   1.0000
     1.0000   1.0000   1.0000   1.0000   1.0000   1.0000   1.0000   1.0000
     0.0000   0.0000   0.0000   0.0000   0.0000   0.0000   0.0000   0.0000

          k = 0.3125-0.1804 0.0312 (  8000 PWs)   bands (ev):

   -18.6544 -18.6544 -15.7973 -15.7973 -13.8857 -13.8857 -13.0204 -13.0204
    -9.8186  -9.8186  -8.4405  -8.4405  -7.5841  -7.5841  -6.8311  -6.8311
    -5.4591  -5.4591  -4.6301  -4.6301  -3.5341  -3.5341  -2.0884  -2.0884
     1.4824   1.4824   3.6060   3.6060   4.1053   4.1053   6.3760   6.3760

     occupation numbers 
     1.0000   1.0000   1.0000   1.0000   1.0000   1.0000   1.0000   1.0000
     1.0000   1.0000   1.0000   1.0000   1.0000   1.0000   1.0000   1.0000
     1.0000   1.0000   1.0000   1.0000   1.0000   1.0000   1.0000   1.0000
     0.0000   0.0000   0.0000   0.0000   0.0000   0.0000   0.0000   0.0000

          k = 0.3125-0.1804 0.0938 (  7984 PWs)   bands (ev):

   -18.6544 -18.6544 -15.7973 -15.7973 -13.8857 -13.8857 -13.0204 -13.0204
    -9.8186  -9.8186  -8.4405  -8.4405  -7.5841  -7.5841  -6.8312  -6.8312
    -5.4591  -5.4591  -4.6301  -4.6301  -3.5342  -3.5342  -2.0884  -2.0884
     1.4823   1.4823   3.6060   3.6060   4.2001   4.2001   5.9748   5.9748

     occupation numbers 
     1.0000   1.0000   1.0000   1.0000   1.0000   1.0000   1.0000   1.0000
     1.0000   1.0000   1.0000   1.0000   1.0000   1.0000   1.0000   1.0000
     1.0000   1.0000   1.0000   1.0000   1.0000   1.0000   1.0000   1.0000
     0.0000   0.0000   0.0000   0.0000   0.0000   0.0000   0.0000   0.0000

          k = 0.3125-0.1804 0.1562 (  7994 PWs)   bands (ev):

   -18.6544 -18.6544 -15.7973 -15.7973 -13.8857 -13.8857 -13.0204 -13.0204
    -9.8186  -9.8186  -8.4405  -8.4405  -7.5841  -7.5841  -6.8313  -6.8313
    -5.4591  -5.4591  -4.6301  -4.6301  -3.5342  -3.5342  -2.0884  -2.0884
     1.4821   1.4821   3.6060   3.6060   4.3862   4.3862   5.5031   5.5031

     occupation numbers 
     1.0000   1.0000   1.0000   1.0000   1.0000   1.0000   1.0000   1.0000
     1.0000   1.0000   1.0000   1.0000   1.0000   1.0000   1.0000   1.0000
     1.0000   1.0000   1.0000   1.0000   1.0000   1.0000   1.0000   1.0000
     0.0000   0.0000   0.0000   0.0000   0.0000   0.0000   0.0000   0.0000

          k = 0.3125-0.1804 0.2188 (  8000 PWs)   bands (ev):

   -18.6544 -18.6544 -15.7973 -15.7973 -13.8857 -13.8857 -13.0204 -13.0204
    -9.8186  -9.8186  -8.4405  -8.4405  -7.5841  -7.5841  -6.8314  -6.8314
    -5.4591  -5.4591  -4.6301  -4.6301  -3.5343  -3.5343  -2.0885  -2.0885
     1.4820   1.4820   3.6060   3.6060   4.6434   4.6435   5.0903   5.0903

     occupation numbers 
     1.0000   1.0000   1.0000   1.0000   1.0000   1.0000   1.0000   1.0000
     1.0000   1.0000   1.0000   1.0000   1.0000   1.0000   1.0000   1.0000
     1.0000   1.0000   1.0000   1.0000   1.0000   1.0000   1.0000   1.0000
     0.0000   0.0000   0.0000   0.0000   0.0000   0.0000   0.0000   0.0000

          k = 0.4375 0.7578 0.0312 (  8001 PWs)   bands (ev):

   -17.3866 -17.3866 -17.3863 -17.3863 -15.0548 -15.0548 -12.1870 -12.1870
    -8.2143  -8.2143  -8.2131  -8.2131  -6.3960  -6.3960  -6.1484  -6.1484
    -6.1471  -6.1471  -5.3389  -5.3389  -5.3388  -5.3388  -2.9594  -2.9594
     2.2517   2.2517   5.8612   5.8613   6.0576   6.0579   6.0586   6.0587

     occupation numbers 
     1.0000   1.0000   1.0000   1.0000   1.0000   1.0000   1.0000   1.0000
     1.0000   1.0000   1.0000   1.0000   1.0000   1.0000   1.0000   1.0000
     1.0000   1.0000   1.0000   1.0000   1.0000   1.0000   1.0000   1.0000
     0.0000   0.0000   0.0000   0.0000   0.0000   0.0000   0.0000   0.0000

          k = 0.4375 0.7578 0.0938 (  8007 PWs)   bands (ev):

   -17.3866 -17.3866 -17.3863 -17.3863 -15.0548 -15.0548 -12.1870 -12.1870
    -8.2143  -8.2143  -8.2131  -8.2131  -6.3960  -6.3960  -6.1485  -6.1485
    -6.1471  -6.1471  -5.3390  -5.3390  -5.3389  -5.3389  -2.9594  -2.9594
     2.2515   2.2515   5.9461   5.9462   5.9464   5.9465   6.0650   6.0651

     occupation numbers 
     1.0000   1.0000   1.0000   1.0000   1.0000   1.0000   1.0000   1.0000
     1.0000   1.0000   1.0000   1.0000   1.0000   1.0000   1.0000   1.0000
     1.0000   1.0000   1.0000   1.0000   1.0000   1.0000   1.0000   1.0000
     0.0000   0.0000   0.0000   0.0000   0.0000   0.0000   0.0000   0.0000

          k = 0.4375 0.7578 0.1562 (  8001 PWs)   bands (ev):

   -17.3866 -17.3866 -17.3863 -17.3863 -15.0548 -15.0548 -12.1870 -12.1870
    -8.2143  -8.2143  -8.2131  -8.2131  -6.3960  -6.3960  -6.1485  -6.1485
    -6.1471  -6.1471  -5.3391  -5.3391  -5.3390  -5.3390  -2.9595  -2.9595
     2.2513   2.2513   6.0354   6.0354   6.0358   6.0369   6.1537   6.1537

     occupation numbers 
     1.0000   1.0000   1.0000   1.0000   1.0000   1.0000   1.0000   1.0000
     1.0000   1.0000   1.0000   1.0000   1.0000   1.0000   1.0000   1.0000
     1.0000   1.0000   1.0000   1.0000   1.0000   1.0000   1.0000   1.0000
     0.0000   0.0000   0.0000   0.0000   0.0000   0.0000   0.0000   0.0000

          k = 0.4375 0.7578 0.2188 (  7979 PWs)   bands (ev):

   -17.3866 -17.3866 -17.3863 -17.3863 -15.0548 -15.0548 -12.1870 -12.1870
    -8.2143  -8.2143  -8.2131  -8.2131  -6.3960  -6.3960  -6.1485  -6.1485
    -6.1471  -6.1471  -5.3391  -5.3391  -5.3391  -5.3391  -2.9595  -2.9595
     2.2512   2.2512   6.0449   6.0451   6.0455   6.0456   6.3811   6.3814

     occupation numbers 
     1.0000   1.0000   1.0000   1.0000   1.0000   1.0000   1.0000   1.0000
     1.0000   1.0000   1.0000   1.0000   1.0000   1.0000   1.0000   1.0000
     1.0000   1.0000   1.0000   1.0000   1.0000   1.0000   1.0000   1.0000
     0.0000   0.0000   0.0000   0.0000   0.0000   0.0000   0.0000   0.0000

          k = 0.4375-0.2526 0.0312 (  7997 PWs)   bands (ev):

   -17.9272 -17.9272 -16.9697 -16.9697 -14.0926 -14.0926 -13.2319 -13.2319
    -8.4558  -8.4558  -7.1486  -7.1486  -6.9735  -6.9735  -6.6233  -6.6233
    -5.9685  -5.9685  -5.8367  -5.8367  -4.8542  -4.8542  -2.3886  -2.3886
     1.5674   1.5674   5.1105   5.1105   5.3991   5.3991   6.4462   6.4462

     occupation numbers 
     1.0000   1.0000   1.0000   1.0000   1.0000   1.0000   1.0000   1.0000
     1.0000   1.0000   1.0000   1.0000   1.0000   1.0000   1.0000   1.0000
     1.0000   1.0000   1.0000   1.0000   1.0000   1.0000   1.0000   1.0000
     0.0000   0.0000   0.0000   0.0000   0.0000   0.0000   0.0000   0.0000

          k = 0.4375-0.2526 0.0938 (  7991 PWs)   bands (ev):

   -17.9272 -17.9272 -16.9697 -16.9697 -14.0926 -14.0926 -13.2319 -13.2319
    -8.4558  -8.4558  -7.1486  -7.1486  -6.9735  -6.9735  -6.6233  -6.6233
    -5.9686  -5.9686  -5.8367  -5.8367  -4.8543  -4.8543  -2.3886  -2.3886
     1.5673   1.5673   5.2037   5.2037   5.3991   5.3991   6.5368   6.5370

     occupation numbers 
     1.0000   1.0000   1.0000   1.0000   1.0000   1.0000   1.0000   1.0000
     1.0000   1.0000   1.0000   1.0000   1.0000   1.0000   1.0000   1.0000
     1.0000   1.0000   1.0000   1.0000   1.0000   1.0000   1.0000   1.0000
     0.0000   0.0000   0.0000   0.0000   0.0000   0.0000   0.0000   0.0000

          k = 0.4375-0.2526 0.1562 (  8003 PWs)   bands (ev):

   -17.9272 -17.9272 -16.9697 -16.9697 -14.0926 -14.0926 -13.2319 -13.2319
    -8.4558  -8.4558  -7.1486  -7.1486  -6.9735  -6.9735  -6.6233  -6.6233
    -5.9687  -5.9687  -5.8367  -5.8367  -4.8544  -4.8544  -2.3887  -2.3887
     1.5671   1.5671   5.3862   5.3862   5.3990   5.3991   6.4901   6.4909

     occupation numbers 
     1.0000   1.0000   1.0000   1.0000   1.0000   1.0000   1.0000   1.0000
     1.0000   1.0000   1.0000   1.0000   1.0000   1.0000   1.0000   1.0000
     1.0000   1.0000   1.0000   1.0000   1.0000   1.0000   1.0000   1.0000
     0.0000   0.0000   0.0000   0.0000   0.0000   0.0000   0.0000   0.0000

          k = 0.4375-0.2526 0.2188 (  7999 PWs)   bands (ev):

   -17.9272 -17.9272 -16.9697 -16.9697 -14.0926 -14.0926 -13.2320 -13.2320
    -8.4558  -8.4558  -7.1486  -7.1486  -6.9735  -6.9735  -6.6233  -6.6233
    -5.9688  -5.9688  -5.8367  -5.8367  -4.8544  -4.8544  -2.3887  -2.3887
     1.5670   1.5670   5.3990   5.3990   5.6356   5.6356   6.0890   6.0890

     occupation numbers 
     1.0000   1.0000   1.0000   1.0000   1.0000   1.0000   1.0000   1.0000
     1.0000   1.0000   1.0000   1.0000   1.0000   1.0000   1.0000   1.0000
     1.0000   1.0000   1.0000   1.0000   1.0000   1.0000   1.0000   1.0000
     0.0000   0.0000   0.0000   0.0000   0.0000   0.0000   0.0000   0.0000

          k = 0.1250 0.0000 0.0312 (  7992 PWs)   bands (ev):

   -19.3267 -19.3267 -13.3679 -13.3679 -13.3661 -13.3661 -11.9886 -11.9886
   -11.9885 -11.9885 -10.1100 -10.1100 -10.1089 -10.1089  -7.6387  -7.6387
    -3.4579  -3.4579  -3.2892  -3.2892  -1.0794  -1.0794  -1.0787  -1.0787
     0.9233   0.9233   0.9235   0.9235   3.1830   3.1830   5.4813   5.4813

     occupation numbers 
     1.0000   1.0000   1.0000   1.0000   1.0000   1.0000   1.0000   1.0000
     1.0000   1.0000   1.0000   1.0000   1.0000   1.0000   1.0000   1.0000
     1.0000   1.0000   1.0000   1.0000   1.0000   1.0000   1.0000   1.0000
     0.0000   0.0000   0.0000   0.0000   0.0000   0.0000   0.0000   0.0000

          k = 0.1250 0.0000 0.0938 (  8006 PWs)   bands (ev):

   -19.3267 -19.3267 -13.3679 -13.3679 -13.3661 -13.3661 -11.9886 -11.9886
   -11.9885 -11.9885 -10.1100 -10.1100 -10.1089 -10.1089  -7.6388  -7.6388
    -3.4578  -3.4578  -3.2892  -3.2892  -1.0795  -1.0795  -1.0787  -1.0787
     0.9233   0.9233   0.9235   0.9235   3.2791   3.2791   5.0718   5.0718

     occupation numbers 
     1.0000   1.0000   1.0000   1.0000   1.0000   1.0000   1.0000   1.0000
     1.0000   1.0000   1.0000   1.0000   1.0000   1.0000   1.0000   1.0000
     1.0000   1.0000   1.0000   1.0000   1.0000   1.0000   1.0000   1.0000
     0.0000   0.0000   0.0000   0.0000   0.0000   0.0000   0.0000   0.0000

          k = 0.1250 0.0000 0.1562 (  8012 PWs)   bands (ev):

   -19.3267 -19.3267 -13.3679 -13.3679 -13.3661 -13.3661 -11.9886 -11.9886
   -11.9885 -11.9885 -10.1100 -10.1100 -10.1089 -10.1089  -7.6389  -7.6389
    -3.4579  -3.4579  -3.2892  -3.2892  -1.0795  -1.0795  -1.0787  -1.0787
     0.9233   0.9233   0.9235   0.9235   3.4681   3.4681   4.5921   4.5921

     occupation numbers 
     1.0000   1.0000   1.0000   1.0000   1.0000   1.0000   1.0000   1.0000
     1.0000   1.0000   1.0000   1.0000   1.0000   1.0000   1.0000   1.0000
     1.0000   1.0000   1.0000   1.0000   1.0000   1.0000   1.0000   1.0000
     0.0000   0.0000   0.0000   0.0000   0.0000   0.0000   0.0000   0.0000

          k = 0.1250 0.0000 0.2188 (  8016 PWs)   bands (ev):

   -19.3267 -19.3267 -13.3679 -13.3679 -13.3661 -13.3661 -11.9886 -11.9886
   -11.9885 -11.9885 -10.1100 -10.1100 -10.1089 -10.1089  -7.6390  -7.6390
    -3.4579  -3.4579  -3.2893  -3.2893  -1.0795  -1.0795  -1.0788  -1.0788
     0.9233   0.9233   0.9235   0.9235   3.7323   3.7324   4.1698   4.1698

     occupation numbers 
     1.0000   1.0000   1.0000   1.0000   1.0000   1.0000   1.0000   1.0000
     1.0000   1.0000   1.0000   1.0000   1.0000   1.0000   1.0000   1.0000
     1.0000   1.0000   1.0000   1.0000   1.0000   1.0000   1.0000   1.0000
     0.0000   0.0000   0.0000   0.0000   0.0000   0.0000   0.0000   0.0000

          k =-0.1875 0.1804 0.0312 (  7995 PWs)   bands (ev):

   -19.0205 -19.0205 -14.7754 -14.7754 -13.9397 -13.9397 -12.3682 -12.3682
   -10.9361 -10.9361  -9.1268  -9.1268  -8.6416  -8.6416  -7.2698  -7.2698
    -4.5092  -4.5092  -3.8938  -3.8938  -2.4497  -2.4497  -1.8377  -1.8377
     1.4785   1.4785   2.3202   2.3202   3.6022   3.6022   5.8893   5.8894

     occupation numbers 
     1.0000   1.0000   1.0000   1.0000   1.0000   1.0000   1.0000   1.0000
     1.0000   1.0000   1.0000   1.0000   1.0000   1.0000   1.0000   1.0000
     1.0000   1.0000   1.0000   1.0000   1.0000   1.0000   1.0000   1.0000
     0.0000   0.0000   0.0000   0.0000   0.0000   0.0000   0.0000   0.0000

          k = 0.2500 0.0722 0.0312 (  7995 PWs)   bands (ev):

   -19.0205 -19.0205 -14.7754 -14.7754 -13.9397 -13.9397 -12.3682 -12.3682
   -10.9361 -10.9361  -9.1268  -9.1268  -8.6416  -8.6416  -7.2698  -7.2698
    -4.5092  -4.5092  -3.8938  -3.8938  -2.4497  -2.4497  -1.8377  -1.8377
     1.4785   1.4785   2.3202   2.3202   3.6021   3.6022   5.8893   5.8894

     occupation numbers 
     1.0000   1.0000   1.0000   1.0000   1.0000   1.0000   1.0000   1.0000
     1.0000   1.0000   1.0000   1.0000   1.0000   1.0000   1.0000   1.0000
     1.0000   1.0000   1.0000   1.0000   1.0000   1.0000   1.0000   1.0000
     0.0000   0.0000   0.0000   0.0000   0.0000   0.0000   0.0000   0.0000

          k =-0.1875 0.1804 0.0938 (  8012 PWs)   bands (ev):

   -19.0205 -19.0205 -14.7754 -14.7754 -13.9397 -13.9397 -12.3682 -12.3682
   -10.9361 -10.9361  -9.1268  -9.1268  -8.6416  -8.6416  -7.2699  -7.2699
    -4.5092  -4.5092  -3.8938  -3.8938  -2.4498  -2.4498  -1.8377  -1.8377
     1.4784   1.4784   2.3202   2.3202   3.6977   3.6977   5.4830   5.4831

     occupation numbers 
     1.0000   1.0000   1.0000   1.0000   1.0000   1.0000   1.0000   1.0000
     1.0000   1.0000   1.0000   1.0000   1.0000   1.0000   1.0000   1.0000
     1.0000   1.0000   1.0000   1.0000   1.0000   1.0000   1.0000   1.0000
     0.0000   0.0000   0.0000   0.0000   0.0000   0.0000   0.0000   0.0000

          k = 0.2500 0.0722 0.0938 (  8012 PWs)   bands (ev):

   -19.0205 -19.0205 -14.7754 -14.7754 -13.9397 -13.9397 -12.3682 -12.3682
   -10.9361 -10.9361  -9.1268  -9.1268  -8.6416  -8.6416  -7.2699  -7.2699
    -4.5092  -4.5092  -3.8938  -3.8938  -2.4498  -2.4498  -1.8377  -1.8377
     1.4784   1.4784   2.3202   2.3202   3.6977   3.6977   5.4830   5.4830

     occupation numbers 
     1.0000   1.0000   1.0000   1.0000   1.0000   1.0000   1.0000   1.0000
     1.0000   1.0000   1.0000   1.0000   1.0000   1.0000   1.0000   1.0000
     1.0000   1.0000   1.0000   1.0000   1.0000   1.0000   1.0000   1.0000
     0.0000   0.0000   0.0000   0.0000   0.0000   0.0000   0.0000   0.0000

          k =-0.1875 0.1804 0.1562 (  8003 PWs)   bands (ev):

   -19.0205 -19.0205 -14.7754 -14.7754 -13.9397 -13.9397 -12.3682 -12.3682
   -10.9361 -10.9361  -9.1268  -9.1268  -8.6416  -8.6416  -7.2700  -7.2700
    -4.5092  -4.5092  -3.8938  -3.8938  -2.4498  -2.4498  -1.8378  -1.8378
     1.4783   1.4783   2.3201   2.3201   3.8854   3.8854   5.0066   5.0067

     occupation numbers 
     1.0000   1.0000   1.0000   1.0000   1.0000   1.0000   1.0000   1.0000
     1.0000   1.0000   1.0000   1.0000   1.0000   1.0000   1.0000   1.0000
     1.0000   1.0000   1.0000   1.0000   1.0000   1.0000   1.0000   1.0000
     0.0000   0.0000   0.0000   0.0000   0.0000   0.0000   0.0000   0.0000

          k = 0.2500 0.0722 0.1562 (  8003 PWs)   bands (ev):

   -19.0205 -19.0205 -14.7754 -14.7754 -13.9397 -13.9397 -12.3682 -12.3682
   -10.9361 -10.9361  -9.1268  -9.1268  -8.6416  -8.6416  -7.2700  -7.2700
    -4.5092  -4.5092  -3.8938  -3.8938  -2.4498  -2.4498  -1.8378  -1.8378
     1.4783   1.4783   2.3201   2.3201   3.8854   3.8854   5.0066   5.0066

     occupation numbers 
     1.0000   1.0000   1.0000   1.0000   1.0000   1.0000   1.0000   1.0000
     1.0000   1.0000   1.0000   1.0000   1.0000   1.0000   1.0000   1.0000
     1.0000   1.0000   1.0000   1.0000   1.0000   1.0000   1.0000   1.0000
     0.0000   0.0000   0.0000   0.0000   0.0000   0.0000   0.0000   0.0000

          k =-0.1875 0.1804 0.2188 (  8009 PWs)   bands (ev):

   -19.0205 -19.0205 -14.7754 -14.7754 -13.9397 -13.9397 -12.3682 -12.3682
   -10.9361 -10.9361  -9.1268  -9.1268  -8.6416  -8.6416  -7.2701  -7.2701
    -4.5092  -4.5092  -3.8938  -3.8938  -2.4499  -2.4499  -1.8378  -1.8378
     1.4783   1.4783   2.3201   2.3201   4.1464   4.1465   4.5886   4.5886

     occupation numbers 
     1.0000   1.0000   1.0000   1.0000   1.0000   1.0000   1.0000   1.0000
     1.0000   1.0000   1.0000   1.0000   1.0000   1.0000   1.0000   1.0000
     1.0000   1.0000   1.0000   1.0000   1.0000   1.0000   1.0000   1.0000
     0.0000   0.0000   0.0000   0.0000   0.0000   0.0000   0.0000   0.0000

          k = 0.2500 0.0722 0.2188 (  8009 PWs)   bands (ev):

   -19.0205 -19.0205 -14.7754 -14.7754 -13.9397 -13.9397 -12.3682 -12.3682
   -10.9361 -10.9361  -9.1268  -9.1268  -8.6416  -8.6416  -7.2701  -7.2701
    -4.5092  -4.5092  -3.8938  -3.8938  -2.4499  -2.4499  -1.8378  -1.8378
     1.4783   1.4783   2.3201   2.3201   4.1464   4.1464   4.5886   4.5886

     occupation numbers 
     1.0000   1.0000   1.0000   1.0000   1.0000   1.0000   1.0000   1.0000
     1.0000   1.0000   1.0000   1.0000   1.0000   1.0000   1.0000   1.0000
     1.0000   1.0000   1.0000   1.0000   1.0000   1.0000   1.0000   1.0000
     0.0000   0.0000   0.0000   0.0000   0.0000   0.0000   0.0000   0.0000

          k =-0.3125 0.2526 0.0312 (  8000 PWs)   bands (ev):

   -18.4719 -18.4719 -16.0871 -16.0871 -14.3127 -14.3127 -12.7040 -12.7040
    -9.6715  -9.6715  -7.9533  -7.9533  -7.2519  -7.2519  -6.6137  -6.6137
    -5.9548  -5.9548  -4.8670  -4.8670  -3.8589  -3.8589  -2.3460  -2.3460
     1.7035   1.7035   3.9820   3.9820   4.3566   4.3566   6.6164   6.6165

     occupation numbers 
     1.0000   1.0000   1.0000   1.0000   1.0000   1.0000   1.0000   1.0000
     1.0000   1.0000   1.0000   1.0000   1.0000   1.0000   1.0000   1.0000
     1.0000   1.0000   1.0000   1.0000   1.0000   1.0000   1.0000   1.0000
     0.0000   0.0000   0.0000   0.0000   0.0000   0.0000   0.0000   0.0000

          k = 0.3750 0.1443 0.0312 (  8000 PWs)   bands (ev):

   -18.4719 -18.4719 -16.0871 -16.0871 -14.3127 -14.3127 -12.7040 -12.7040
    -9.6715  -9.6715  -7.9533  -7.9533  -7.2519  -7.2519  -6.6137  -6.6137
    -5.9548  -5.9548  -4.8670  -4.8670  -3.8589  -3.8589  -2.3460  -2.3460
     1.7035   1.7035   3.9820   3.9820   4.3566   4.3567   6.6164   6.6164

     occupation numbers 
     1.0000   1.0000   1.0000   1.0000   1.0000   1.0000   1.0000   1.0000
     1.0000   1.0000   1.0000   1.0000   1.0000   1.0000   1.0000   1.0000
     1.0000   1.0000   1.0000   1.0000   1.0000   1.0000   1.0000   1.0000
     0.0000   0.0000   0.0000   0.0000   0.0000   0.0000   0.0000   0.0000

          k =-0.3125 0.2526 0.0938 (  7996 PWs)   bands (ev):

   -18.4719 -18.4719 -16.0871 -16.0871 -14.3127 -14.3127 -12.7040 -12.7040
    -9.6715  -9.6715  -7.9533  -7.9533  -7.2519  -7.2519  -6.6137  -6.6137
    -5.9548  -5.9548  -4.8670  -4.8670  -3.8589  -3.8589  -2.3460  -2.3460
     1.7034   1.7034   3.9819   3.9819   4.4511   4.4511   6.2188   6.2189

     occupation numbers 
     1.0000   1.0000   1.0000   1.0000   1.0000   1.0000   1.0000   1.0000
     1.0000   1.0000   1.0000   1.0000   1.0000   1.0000   1.0000   1.0000
     1.0000   1.0000   1.0000   1.0000   1.0000   1.0000   1.0000   1.0000
     0.0000   0.0000   0.0000   0.0000   0.0000   0.0000   0.0000   0.0000

          k = 0.3750 0.1443 0.0938 (  7996 PWs)   bands (ev):

   -18.4719 -18.4719 -16.0871 -16.0871 -14.3127 -14.3127 -12.7040 -12.7040
    -9.6715  -9.6715  -7.9533  -7.9533  -7.2519  -7.2519  -6.6137  -6.6137
    -5.9548  -5.9548  -4.8670  -4.8670  -3.8589  -3.8589  -2.3460  -2.3460
     1.7034   1.7034   3.9819   3.9819   4.4511   4.4511   6.2188   6.2190

     occupation numbers 
     1.0000   1.0000   1.0000   1.0000   1.0000   1.0000   1.0000   1.0000
     1.0000   1.0000   1.0000   1.0000   1.0000   1.0000   1.0000   1.0000
     1.0000   1.0000   1.0000   1.0000   1.0000   1.0000   1.0000   1.0000
     0.0000   0.0000   0.0000   0.0000   0.0000   0.0000   0.0000   0.0000

          k =-0.3125 0.2526 0.1562 (  7997 PWs)   bands (ev):

   -18.4719 -18.4719 -16.0871 -16.0871 -14.3127 -14.3127 -12.7040 -12.7040
    -9.6715  -9.6715  -7.9533  -7.9533  -7.2519  -7.2519  -6.6139  -6.6139
    -5.9547  -5.9547  -4.8670  -4.8670  -3.8590  -3.8590  -2.3461  -2.3461
     1.7032   1.7032   3.9819   3.9819   4.6362   4.6363   5.7501   5.7501

     occupation numbers 
     1.0000   1.0000   1.0000   1.0000   1.0000   1.0000   1.0000   1.0000
     1.0000   1.0000   1.0000   1.0000   1.0000   1.0000   1.0000   1.0000
     1.0000   1.0000   1.0000   1.0000   1.0000   1.0000   1.0000   1.0000
     0.0000   0.0000   0.0000   0.0000   0.0000   0.0000   0.0000   0.0000

          k = 0.3750 0.1443 0.1562 (  7997 PWs)   bands (ev):

   -18.4719 -18.4719 -16.0871 -16.0871 -14.3127 -14.3127 -12.7040 -12.7040
    -9.6715  -9.6715  -7.9533  -7.9533  -7.2519  -7.2519  -6.6139  -6.6139
    -5.9547  -5.9547  -4.8670  -4.8670  -3.8590  -3.8590  -2.3461  -2.3461
     1.7032   1.7032   3.9819   3.9819   4.6363   4.6363   5.7501   5.7502

     occupation numbers 
     1.0000   1.0000   1.0000   1.0000   1.0000   1.0000   1.0000   1.0000
     1.0000   1.0000   1.0000   1.0000   1.0000   1.0000   1.0000   1.0000
     1.0000   1.0000   1.0000   1.0000   1.0000   1.0000   1.0000   1.0000
     0.0000   0.0000   0.0000   0.0000   0.0000   0.0000   0.0000   0.0000

          k =-0.3125 0.2526 0.2188 (  8006 PWs)   bands (ev):

   -18.4719 -18.4719 -16.0871 -16.0871 -14.3127 -14.3127 -12.7040 -12.7040
    -9.6715  -9.6715  -7.9533  -7.9533  -7.2519  -7.2519  -6.6139  -6.6139
    -5.9547  -5.9547  -4.8670  -4.8670  -3.8591  -3.8591  -2.3461  -2.3461
     1.7031   1.7031   3.9819   3.9819   4.8915   4.8915   5.3403   5.3403

     occupation numbers 
     1.0000   1.0000   1.0000   1.0000   1.0000   1.0000   1.0000   1.0000
     1.0000   1.0000   1.0000   1.0000   1.0000   1.0000   1.0000   1.0000
     1.0000   1.0000   1.0000   1.0000   1.0000   1.0000   1.0000   1.0000
     0.0000   0.0000   0.0000   0.0000   0.0000   0.0000   0.0000   0.0000

          k = 0.3750 0.1443 0.2188 (  8006 PWs)   bands (ev):

   -18.4719 -18.4719 -16.0871 -16.0871 -14.3127 -14.3127 -12.7040 -12.7040
    -9.6715  -9.6715  -7.9533  -7.9533  -7.2519  -7.2519  -6.6139  -6.6139
    -5.9547  -5.9547  -4.8670  -4.8670  -3.8591  -3.8591  -2.3461  -2.3461
     1.7031   1.7031   3.9819   3.9819   4.8915   4.8915   5.3403   5.3403

     occupation numbers 
     1.0000   1.0000   1.0000   1.0000   1.0000   1.0000   1.0000   1.0000
     1.0000   1.0000   1.0000   1.0000   1.0000   1.0000   1.0000   1.0000
     1.0000   1.0000   1.0000   1.0000   1.0000   1.0000   1.0000   1.0000
     0.0000   0.0000   0.0000   0.0000   0.0000   0.0000   0.0000   0.0000

          k =-0.4375 0.3248 0.0312 (  7999 PWs)   bands (ev):

   -17.6864 -17.6864 -17.2075 -17.2075 -14.4738 -14.4738 -12.8564 -12.8564
    -8.2493  -8.2493  -7.4950  -7.4950  -6.6923  -6.6923  -6.4991  -6.4991
    -6.0597  -6.0597  -5.6863  -5.6863  -5.1294  -5.1294  -2.5669  -2.5669
     1.7591   1.7591   5.4448   5.4448   5.7935   5.7935   6.1128   6.1129

     occupation numbers 
     1.0000   1.0000   1.0000   1.0000   1.0000   1.0000   1.0000   1.0000
     1.0000   1.0000   1.0000   1.0000   1.0000   1.0000   1.0000   1.0000
     1.0000   1.0000   1.0000   1.0000   1.0000   1.0000   1.0000   1.0000
     0.0000   0.0000   0.0000   0.0000   0.0000   0.0000   0.0000   0.0000

          k = 0.5000 0.2165 0.0312 (  7999 PWs)   bands (ev):

   -17.6864 -17.6864 -17.2075 -17.2075 -14.4738 -14.4738 -12.8564 -12.8564
    -8.2493  -8.2493  -7.4950  -7.4950  -6.6923  -6.6923  -6.4991  -6.4991
    -6.0597  -6.0597  -5.6863  -5.6863  -5.1294  -5.1294  -2.5669  -2.5669
     1.7591   1.7591   5.4448   5.4448   5.7935   5.7935   6.1129   6.1130

     occupation numbers 
     1.0000   1.0000   1.0000   1.0000   1.0000   1.0000   1.0000   1.0000
     1.0000   1.0000   1.0000   1.0000   1.0000   1.0000   1.0000   1.0000
     1.0000   1.0000   1.0000   1.0000   1.0000   1.0000   1.0000   1.0000
     0.0000   0.0000   0.0000   0.0000   0.0000   0.0000   0.0000   0.0000

          k =-0.4375 0.3248 0.0938 (  7997 PWs)   bands (ev):

   -17.6864 -17.6864 -17.2075 -17.2075 -14.4738 -14.4738 -12.8564 -12.8564
    -8.2493  -8.2493  -7.4950  -7.4950  -6.6923  -6.6923  -6.4991  -6.4991
    -6.0597  -6.0597  -5.6863  -5.6863  -5.1295  -5.1295  -2.5670  -2.5670
     1.7590   1.7590   5.5373   5.5375   5.7930   5.7931   6.2048   6.7140

     occupation numbers 
     1.0000   1.0000   1.0000   1.0000   1.0000   1.0000   1.0000   1.0000
     1.0000   1.0000   1.0000   1.0000   1.0000   1.0000   1.0000   1.0000
     1.0000   1.0000   1.0000   1.0000   1.0000   1.0000   1.0000   1.0000
     0.0000   0.0000   0.0000   0.0000   0.0000   0.0000   0.0000   0.0000

          k = 0.5000 0.2165 0.0938 (  7997 PWs)   bands (ev):

   -17.6864 -17.6864 -17.2075 -17.2075 -14.4738 -14.4738 -12.8564 -12.8564
    -8.2493  -8.2493  -7.4950  -7.4950  -6.6923  -6.6923  -6.4991  -6.4991
    -6.0597  -6.0597  -5.6863  -5.6863  -5.1295  -5.1295  -2.5670  -2.5670
     1.7590   1.7590   5.5373   5.5373   5.7930   5.7930   6.2046   6.2048

     occupation numbers 
     1.0000   1.0000   1.0000   1.0000   1.0000   1.0000   1.0000   1.0000
     1.0000   1.0000   1.0000   1.0000   1.0000   1.0000   1.0000   1.0000
     1.0000   1.0000   1.0000   1.0000   1.0000   1.0000   1.0000   1.0000
     0.0000   0.0000   0.0000   0.0000   0.0000   0.0000   0.0000   0.0000

          k =-0.4375 0.3248 0.1562 (  7998 PWs)   bands (ev):

   -17.6864 -17.6864 -17.2075 -17.2075 -14.4738 -14.4738 -12.8564 -12.8564
    -8.2493  -8.2493  -7.4950  -7.4950  -6.6923  -6.6923  -6.4991  -6.4991
    -6.0597  -6.0597  -5.6864  -5.6864  -5.1296  -5.1296  -2.5670  -2.5670
     1.7588   1.7588   5.7181   5.7181   5.7924   5.7924   6.3834   6.3835

     occupation numbers 
     1.0000   1.0000   1.0000   1.0000   1.0000   1.0000   1.0000   1.0000
     1.0000   1.0000   1.0000   1.0000   1.0000   1.0000   1.0000   1.0000
     1.0000   1.0000   1.0000   1.0000   1.0000   1.0000   1.0000   1.0000
     0.0000   0.0000   0.0000   0.0000   0.0000   0.0000   0.0000   0.0000

          k = 0.5000 0.2165 0.1562 (  7998 PWs)   bands (ev):

   -17.6864 -17.6864 -17.2075 -17.2075 -14.4738 -14.4738 -12.8564 -12.8564
    -8.2493  -8.2493  -7.4950  -7.4950  -6.6923  -6.6923  -6.4991  -6.4991
    -6.0597  -6.0597  -5.6864  -5.6864  -5.1296  -5.1296  -2.5670  -2.5670
     1.7588   1.7588   5.7181   5.7181   5.7924   5.7924   6.3833   6.3839

     occupation numbers 
     1.0000   1.0000   1.0000   1.0000   1.0000   1.0000   1.0000   1.0000
     1.0000   1.0000   1.0000   1.0000   1.0000   1.0000   1.0000   1.0000
     1.0000   1.0000   1.0000   1.0000   1.0000   1.0000   1.0000   1.0000
     0.0000   0.0000   0.0000   0.0000   0.0000   0.0000   0.0000   0.0000

          k =-0.4375 0.3248 0.2188 (  7993 PWs)   bands (ev):

   -17.6864 -17.6864 -17.2075 -17.2075 -14.4738 -14.4738 -12.8564 -12.8564
    -8.2493  -8.2493  -7.4950  -7.4950  -6.6923  -6.6923  -6.4991  -6.4991
    -6.0597  -6.0597  -5.6865  -5.6865  -5.1297  -5.1297  -2.5670  -2.5670
     1.7587   1.7587   5.7921   5.7922   5.9645   5.9645   6.4084   6.4089

     occupation numbers 
     1.0000   1.0000   1.0000   1.0000   1.0000   1.0000   1.0000   1.0000
     1.0000   1.0000   1.0000   1.0000   1.0000   1.0000   1.0000   1.0000
     1.0000   1.0000   1.0000   1.0000   1.0000   1.0000   1.0000   1.0000
     0.0000   0.0000   0.0000   0.0000   0.0000   0.0000   0.0000   0.0000

          k = 0.5000 0.2165 0.2188 (  7993 PWs)   bands (ev):

   -17.6864 -17.6864 -17.2075 -17.2075 -14.4738 -14.4738 -12.8564 -12.8564
    -8.2493  -8.2493  -7.4950  -7.4950  -6.6923  -6.6923  -6.4991  -6.4991
    -6.0597  -6.0597  -5.6865  -5.6865  -5.1297  -5.1297  -2.5670  -2.5670
     1.7587   1.7587   5.7922   5.7922   5.9645   5.9646   6.4083   6.4095

     occupation numbers 
     1.0000   1.0000   1.0000   1.0000   1.0000   1.0000   1.0000   1.0000
     1.0000   1.0000   1.0000   1.0000   1.0000   1.0000   1.0000   1.0000
     1.0000   1.0000   1.0000   1.0000   1.0000   1.0000   1.0000   1.0000
     0.0000   0.0000   0.0000   0.0000   0.0000   0.0000   0.0000   0.0000

          k = 0.4375-0.1804 0.0312 (  7992 PWs)   bands (ev):

   -18.1083 -18.1083 -16.6735 -16.6735 -14.4200 -14.4200 -12.8052 -12.8052
    -8.9773  -8.9773  -7.3280  -7.3280  -6.7639  -6.7639  -6.7251  -6.7251
    -6.1824  -6.1824  -5.4455  -5.4455  -4.5176  -4.5176  -2.4931  -2.4931
     1.7434   1.7434   4.8592   4.8592   4.8756   4.8756   6.8619   6.8624

     occupation numbers 
     1.0000   1.0000   1.0000   1.0000   1.0000   1.0000   1.0000   1.0000
     1.0000   1.0000   1.0000   1.0000   1.0000   1.0000   1.0000   1.0000
     1.0000   1.0000   1.0000   1.0000   1.0000   1.0000   1.0000   1.0000
     0.0000   0.0000   0.0000   0.0000   0.0000   0.0000   0.0000   0.0000

          k =-0.3750-0.2887 0.0312 (  7992 PWs)   bands (ev):

   -18.1083 -18.1083 -16.6735 -16.6735 -14.4200 -14.4200 -12.8052 -12.8052
    -8.9773  -8.9773  -7.3280  -7.3280  -6.7639  -6.7639  -6.7251  -6.7251
    -6.1824  -6.1824  -5.4455  -5.4455  -4.5176  -4.5176  -2.4931  -2.4931
     1.7434   1.7434   4.8592   4.8592   4.8756   4.8756   6.8618   7.0870

     occupation numbers 
     1.0000   1.0000   1.0000   1.0000   1.0000   1.0000   1.0000   1.0000
     1.0000   1.0000   1.0000   1.0000   1.0000   1.0000   1.0000   1.0000
     1.0000   1.0000   1.0000   1.0000   1.0000   1.0000   1.0000   1.0000
     0.0000   0.0000   0.0000   0.0000   0.0000   0.0000   0.0000   0.0000

          k = 0.4375-0.1804 0.0938 (  8002 PWs)   bands (ev):

   -18.1083 -18.1083 -16.6735 -16.6735 -14.4200 -14.4200 -12.8052 -12.8052
    -8.9773  -8.9773  -7.3280  -7.3280  -6.7639  -6.7639  -6.7251  -6.7251
    -6.1825  -6.1825  -5.4455  -5.4455  -4.5177  -4.5177  -2.4932  -2.4932
     1.7433   1.7433   4.8755   4.8755   4.9528   4.9528   6.7030   6.7037

     occupation numbers 
     1.0000   1.0000   1.0000   1.0000   1.0000   1.0000   1.0000   1.0000
     1.0000   1.0000   1.0000   1.0000   1.0000   1.0000   1.0000   1.0000
     1.0000   1.0000   1.0000   1.0000   1.0000   1.0000   1.0000   1.0000
     0.0000   0.0000   0.0000   0.0000   0.0000   0.0000   0.0000   0.0000

          k =-0.3750-0.2887 0.0938 (  8002 PWs)   bands (ev):

   -18.1083 -18.1083 -16.6735 -16.6735 -14.4200 -14.4200 -12.8052 -12.8052
    -8.9773  -8.9773  -7.3280  -7.3280  -6.7639  -6.7639  -6.7251  -6.7251
    -6.1825  -6.1825  -5.4455  -5.4455  -4.5177  -4.5177  -2.4932  -2.4932
     1.7433   1.7433   4.8755   4.8755   4.9528   4.9528   6.7031   6.7033

     occupation numbers 
     1.0000   1.0000   1.0000   1.0000   1.0000   1.0000   1.0000   1.0000
     1.0000   1.0000   1.0000   1.0000   1.0000   1.0000   1.0000   1.0000
     1.0000   1.0000   1.0000   1.0000   1.0000   1.0000   1.0000   1.0000
     0.0000   0.0000   0.0000   0.0000   0.0000   0.0000   0.0000   0.0000

          k = 0.4375-0.1804 0.1562 (  7995 PWs)   bands (ev):

   -18.1083 -18.1083 -16.6735 -16.6735 -14.4200 -14.4200 -12.8052 -12.8052
    -8.9773  -8.9773  -7.3280  -7.3280  -6.7639  -6.7639  -6.7251  -6.7251
    -6.1826  -6.1826  -5.4455  -5.4455  -4.5178  -4.5178  -2.4932  -2.4932
     1.7431   1.7431   4.8754   4.8754   5.1362   5.1362   6.2423   6.2424

     occupation numbers 
     1.0000   1.0000   1.0000   1.0000   1.0000   1.0000   1.0000   1.0000
     1.0000   1.0000   1.0000   1.0000   1.0000   1.0000   1.0000   1.0000
     1.0000   1.0000   1.0000   1.0000   1.0000   1.0000   1.0000   1.0000
     0.0000   0.0000   0.0000   0.0000   0.0000   0.0000   0.0000   0.0000

          k =-0.3750-0.2887 0.1562 (  7995 PWs)   bands (ev):

   -18.1083 -18.1083 -16.6735 -16.6735 -14.4200 -14.4200 -12.8052 -12.8052
    -8.9773  -8.9773  -7.3280  -7.3280  -6.7639  -6.7639  -6.7251  -6.7251
    -6.1826  -6.1826  -5.4455  -5.4455  -4.5178  -4.5178  -2.4932  -2.4932
     1.7431   1.7431   4.8754   4.8754   5.1362   5.1362   6.2423   6.2427

     occupation numbers 
     1.0000   1.0000   1.0000   1.0000   1.0000   1.0000   1.0000   1.0000
     1.0000   1.0000   1.0000   1.0000   1.0000   1.0000   1.0000   1.0000
     1.0000   1.0000   1.0000   1.0000   1.0000   1.0000   1.0000   1.0000
     0.0000   0.0000   0.0000   0.0000   0.0000   0.0000   0.0000   0.0000

          k = 0.4375-0.1804 0.2188 (  7988 PWs)   bands (ev):

   -18.1083 -18.1083 -16.6735 -16.6735 -14.4200 -14.4200 -12.8052 -12.8052
    -8.9773  -8.9773  -7.3280  -7.3280  -6.7639  -6.7639  -6.7251  -6.7251
    -6.1827  -6.1827  -5.4455  -5.4455  -4.5179  -4.5179  -2.4932  -2.4932
     1.7430   1.7430   4.8753   4.8753   5.3874   5.3875   5.8390   5.8390

     occupation numbers 
     1.0000   1.0000   1.0000   1.0000   1.0000   1.0000   1.0000   1.0000
     1.0000   1.0000   1.0000   1.0000   1.0000   1.0000   1.0000   1.0000
     1.0000   1.0000   1.0000   1.0000   1.0000   1.0000   1.0000   1.0000
     0.0000   0.0000   0.0000   0.0000   0.0000   0.0000   0.0000   0.0000

          k =-0.3750-0.2887 0.2188 (  7988 PWs)   bands (ev):

   -18.1083 -18.1083 -16.6735 -16.6735 -14.4200 -14.4200 -12.8052 -12.8052
    -8.9773  -8.9773  -7.3280  -7.3280  -6.7639  -6.7639  -6.7251  -6.7251
    -6.1827  -6.1827  -5.4455  -5.4455  -4.5179  -4.5179  -2.4932  -2.4932
     1.7430   1.7430   4.8753   4.8753   5.3875   5.3875   5.8391   5.8391

     occupation numbers 
     1.0000   1.0000   1.0000   1.0000   1.0000   1.0000   1.0000   1.0000
     1.0000   1.0000   1.0000   1.0000   1.0000   1.0000   1.0000   1.0000
     1.0000   1.0000   1.0000   1.0000   1.0000   1.0000   1.0000   1.0000
     0.0000   0.0000   0.0000   0.0000   0.0000   0.0000   0.0000   0.0000

          k = 0.3125-0.1083 0.0312 (  7999 PWs)   bands (ev):

   -18.7762 -18.7762 -15.4522 -15.4522 -14.1523 -14.1523 -12.5559 -12.5559
   -10.3261 -10.3261  -8.5566  -8.5566  -7.8999  -7.8999  -6.9769  -6.9769
    -5.2057  -5.2057  -4.3432  -4.3432  -3.1642  -3.1642  -2.1268  -2.1268
     1.6227   1.6227   3.1262   3.1262   3.9375   3.9375   6.2138   6.2139

     occupation numbers 
     1.0000   1.0000   1.0000   1.0000   1.0000   1.0000   1.0000   1.0000
     1.0000   1.0000   1.0000   1.0000   1.0000   1.0000   1.0000   1.0000
     1.0000   1.0000   1.0000   1.0000   1.0000   1.0000   1.0000   1.0000
     0.0000   0.0000   0.0000   0.0000   0.0000   0.0000   0.0000   0.0000

          k =-0.2500-0.2165 0.0312 (  7999 PWs)   bands (ev):

   -18.7762 -18.7762 -15.4522 -15.4522 -14.1523 -14.1523 -12.5559 -12.5559
   -10.3261 -10.3261  -8.5566  -8.5566  -7.8999  -7.8999  -6.9769  -6.9769
    -5.2057  -5.2057  -4.3432  -4.3432  -3.1642  -3.1642  -2.1268  -2.1268
     1.6227   1.6227   3.1262   3.1262   3.9375   3.9375   6.2138   6.2139

     occupation numbers 
     1.0000   1.0000   1.0000   1.0000   1.0000   1.0000   1.0000   1.0000
     1.0000   1.0000   1.0000   1.0000   1.0000   1.0000   1.0000   1.0000
     1.0000   1.0000   1.0000   1.0000   1.0000   1.0000   1.0000   1.0000
     0.0000   0.0000   0.0000   0.0000   0.0000   0.0000   0.0000   0.0000

          k = 0.3125-0.1083 0.0938 (  7994 PWs)   bands (ev):

   -18.7762 -18.7762 -15.4522 -15.4522 -14.1523 -14.1523 -12.5559 -12.5559
   -10.3261 -10.3261  -8.5566  -8.5566  -7.8999  -7.8999  -6.9770  -6.9770
    -5.2057  -5.2057  -4.3432  -4.3432  -3.1643  -3.1643  -2.1268  -2.1268
     1.6226   1.6226   3.1262   3.1262   4.0326   4.0326   5.8109   5.8109

     occupation numbers 
     1.0000   1.0000   1.0000   1.0000   1.0000   1.0000   1.0000   1.0000
     1.0000   1.0000   1.0000   1.0000   1.0000   1.0000   1.0000   1.0000
     1.0000   1.0000   1.0000   1.0000   1.0000   1.0000   1.0000   1.0000
     0.0000   0.0000   0.0000   0.0000   0.0000   0.0000   0.0000   0.0000

          k =-0.2500-0.2165 0.0938 (  7994 PWs)   bands (ev):

   -18.7762 -18.7762 -15.4522 -15.4522 -14.1523 -14.1523 -12.5559 -12.5559
   -10.3261 -10.3261  -8.5566  -8.5566  -7.8999  -7.8999  -6.9770  -6.9770
    -5.2057  -5.2057  -4.3432  -4.3432  -3.1643  -3.1643  -2.1268  -2.1268
     1.6226   1.6226   3.1262   3.1262   4.0326   4.0326   5.8109   5.8109

     occupation numbers 
     1.0000   1.0000   1.0000   1.0000   1.0000   1.0000   1.0000   1.0000
     1.0000   1.0000   1.0000   1.0000   1.0000   1.0000   1.0000   1.0000
     1.0000   1.0000   1.0000   1.0000   1.0000   1.0000   1.0000   1.0000
     0.0000   0.0000   0.0000   0.0000   0.0000   0.0000   0.0000   0.0000

          k = 0.3125-0.1083 0.1562 (  7996 PWs)   bands (ev):

   -18.7762 -18.7762 -15.4522 -15.4522 -14.1523 -14.1523 -12.5559 -12.5559
   -10.3261 -10.3261  -8.5566  -8.5566  -7.8999  -7.8999  -6.9771  -6.9771
    -5.2057  -5.2057  -4.3432  -4.3432  -3.1644  -3.1644  -2.1268  -2.1268
     1.6225   1.6225   3.1262   3.1262   4.2192   4.2192   5.3376   5.3376

     occupation numbers 
     1.0000   1.0000   1.0000   1.0000   1.0000   1.0000   1.0000   1.0000
     1.0000   1.0000   1.0000   1.0000   1.0000   1.0000   1.0000   1.0000
     1.0000   1.0000   1.0000   1.0000   1.0000   1.0000   1.0000   1.0000
     0.0000   0.0000   0.0000   0.0000   0.0000   0.0000   0.0000   0.0000

          k =-0.2500-0.2165 0.1562 (  7996 PWs)   bands (ev):

   -18.7762 -18.7762 -15.4522 -15.4522 -14.1523 -14.1523 -12.5559 -12.5559
   -10.3261 -10.3261  -8.5566  -8.5566  -7.8999  -7.8999  -6.9771  -6.9771
    -5.2057  -5.2057  -4.3432  -4.3432  -3.1644  -3.1644  -2.1268  -2.1268
     1.6225   1.6225   3.1262   3.1262   4.2192   4.2192   5.3376   5.3376

     occupation numbers 
     1.0000   1.0000   1.0000   1.0000   1.0000   1.0000   1.0000   1.0000
     1.0000   1.0000   1.0000   1.0000   1.0000   1.0000   1.0000   1.0000
     1.0000   1.0000   1.0000   1.0000   1.0000   1.0000   1.0000   1.0000
     0.0000   0.0000   0.0000   0.0000   0.0000   0.0000   0.0000   0.0000

          k = 0.3125-0.1083 0.2188 (  8009 PWs)   bands (ev):

   -18.7762 -18.7762 -15.4522 -15.4522 -14.1523 -14.1523 -12.5560 -12.5560
   -10.3261 -10.3261  -8.5566  -8.5566  -7.8999  -7.8999  -6.9772  -6.9772
    -5.2057  -5.2057  -4.3432  -4.3432  -3.1644  -3.1644  -2.1269  -2.1269
     1.6225   1.6225   3.1261   3.1261   4.4777   4.4777   4.9231   4.9231

     occupation numbers 
     1.0000   1.0000   1.0000   1.0000   1.0000   1.0000   1.0000   1.0000
     1.0000   1.0000   1.0000   1.0000   1.0000   1.0000   1.0000   1.0000
     1.0000   1.0000   1.0000   1.0000   1.0000   1.0000   1.0000   1.0000
     0.0000   0.0000   0.0000   0.0000   0.0000   0.0000   0.0000   0.0000

          k =-0.2500-0.2165 0.2188 (  8009 PWs)   bands (ev):

   -18.7762 -18.7762 -15.4522 -15.4522 -14.1523 -14.1523 -12.5560 -12.5560
   -10.3261 -10.3261  -8.5566  -8.5566  -7.8999  -7.8999  -6.9772  -6.9772
    -5.2057  -5.2057  -4.3432  -4.3432  -3.1644  -3.1644  -2.1269  -2.1269
     1.6225   1.6225   3.1261   3.1261   4.4777   4.4777   4.9231   4.9231

     occupation numbers 
     1.0000   1.0000   1.0000   1.0000   1.0000   1.0000   1.0000   1.0000
     1.0000   1.0000   1.0000   1.0000   1.0000   1.0000   1.0000   1.0000
     1.0000   1.0000   1.0000   1.0000   1.0000   1.0000   1.0000   1.0000
     0.0000   0.0000   0.0000   0.0000   0.0000   0.0000   0.0000   0.0000

          k = 0.1875-0.0361 0.0312 (  7996 PWs)   bands (ev):

   -19.2041 -19.2041 -14.0692 -14.0692 -13.6765 -13.6765 -12.1595 -12.1595
   -11.4956 -11.4956  -9.6511  -9.6511  -9.4103  -9.4103  -7.4908  -7.4908
    -3.9083  -3.9083  -3.5372  -3.5372  -1.7397  -1.7397  -1.4839  -1.4839
     1.2480   1.2480   1.5771   1.5771   3.3506   3.3506   5.6447   5.6448

     occupation numbers 
     1.0000   1.0000   1.0000   1.0000   1.0000   1.0000   1.0000   1.0000
     1.0000   1.0000   1.0000   1.0000   1.0000   1.0000   1.0000   1.0000
     1.0000   1.0000   1.0000   1.0000   1.0000   1.0000   1.0000   1.0000
     0.0000   0.0000   0.0000   0.0000   0.0000   0.0000   0.0000   0.0000

          k =-0.1250-0.1443 0.0312 (  7996 PWs)   bands (ev):

   -19.2041 -19.2041 -14.0692 -14.0692 -13.6765 -13.6765 -12.1595 -12.1595
   -11.4956 -11.4956  -9.6511  -9.6511  -9.4103  -9.4103  -7.4908  -7.4908
    -3.9083  -3.9083  -3.5372  -3.5372  -1.7397  -1.7397  -1.4839  -1.4839
     1.2480   1.2480   1.5771   1.5771   3.3506   3.3506   5.6447   5.6448

     occupation numbers 
     1.0000   1.0000   1.0000   1.0000   1.0000   1.0000   1.0000   1.0000
     1.0000   1.0000   1.0000   1.0000   1.0000   1.0000   1.0000   1.0000
     1.0000   1.0000   1.0000   1.0000   1.0000   1.0000   1.0000   1.0000
     0.0000   0.0000   0.0000   0.0000   0.0000   0.0000   0.0000   0.0000

          k = 0.1875-0.0361 0.0938 (  8006 PWs)   bands (ev):

   -19.2041 -19.2041 -14.0692 -14.0692 -13.6765 -13.6765 -12.1595 -12.1595
   -11.4956 -11.4956  -9.6511  -9.6511  -9.4103  -9.4103  -7.4909  -7.4909
    -3.9083  -3.9083  -3.5372  -3.5372  -1.7398  -1.7398  -1.4839  -1.4839
     1.2480   1.2480   1.5771   1.5771   3.4465   3.4465   5.2365   5.2365

     occupation numbers 
     1.0000   1.0000   1.0000   1.0000   1.0000   1.0000   1.0000   1.0000
     1.0000   1.0000   1.0000   1.0000   1.0000   1.0000   1.0000   1.0000
     1.0000   1.0000   1.0000   1.0000   1.0000   1.0000   1.0000   1.0000
     0.0000   0.0000   0.0000   0.0000   0.0000   0.0000   0.0000   0.0000

          k =-0.1250-0.1443 0.0938 (  8006 PWs)   bands (ev):

   -19.2041 -19.2041 -14.0692 -14.0692 -13.6765 -13.6765 -12.1595 -12.1595
   -11.4956 -11.4956  -9.6511  -9.6511  -9.4103  -9.4103  -7.4909  -7.4909
    -3.9083  -3.9083  -3.5372  -3.5372  -1.7398  -1.7398  -1.4839  -1.4839
     1.2480   1.2480   1.5771   1.5771   3.4465   3.4465   5.2365   5.2365

     occupation numbers 
     1.0000   1.0000   1.0000   1.0000   1.0000   1.0000   1.0000   1.0000
     1.0000   1.0000   1.0000   1.0000   1.0000   1.0000   1.0000   1.0000
     1.0000   1.0000   1.0000   1.0000   1.0000   1.0000   1.0000   1.0000
     0.0000   0.0000   0.0000   0.0000   0.0000   0.0000   0.0000   0.0000

          k = 0.1875-0.0361 0.1562 (  8010 PWs)   bands (ev):

   -19.2041 -19.2041 -14.0692 -14.0692 -13.6765 -13.6765 -12.1595 -12.1595
   -11.4956 -11.4956  -9.6511  -9.6511  -9.4103  -9.4103  -7.4910  -7.4910
    -3.9083  -3.9083  -3.5372  -3.5372  -1.7398  -1.7398  -1.4839  -1.4839
     1.2480   1.2480   1.5771   1.5771   3.6350   3.6350   4.7580   4.7580

     occupation numbers 
     1.0000   1.0000   1.0000   1.0000   1.0000   1.0000   1.0000   1.0000
     1.0000   1.0000   1.0000   1.0000   1.0000   1.0000   1.0000   1.0000
     1.0000   1.0000   1.0000   1.0000   1.0000   1.0000   1.0000   1.0000
     0.0000   0.0000   0.0000   0.0000   0.0000   0.0000   0.0000   0.0000

          k =-0.1250-0.1443 0.1562 (  8010 PWs)   bands (ev):

   -19.2041 -19.2041 -14.0692 -14.0692 -13.6765 -13.6765 -12.1595 -12.1595
   -11.4956 -11.4956  -9.6511  -9.6511  -9.4103  -9.4103  -7.4910  -7.4910
    -3.9083  -3.9083  -3.5372  -3.5372  -1.7398  -1.7398  -1.4839  -1.4839
     1.2480   1.2480   1.5771   1.5771   3.6350   3.6350   4.7580   4.7580

     occupation numbers 
     1.0000   1.0000   1.0000   1.0000   1.0000   1.0000   1.0000   1.0000
     1.0000   1.0000   1.0000   1.0000   1.0000   1.0000   1.0000   1.0000
     1.0000   1.0000   1.0000   1.0000   1.0000   1.0000   1.0000   1.0000
     0.0000   0.0000   0.0000   0.0000   0.0000   0.0000   0.0000   0.0000

          k = 0.1875-0.0361 0.2188 (  8014 PWs)   bands (ev):

   -19.2041 -19.2041 -14.0692 -14.0692 -13.6765 -13.6765 -12.1595 -12.1595
   -11.4956 -11.4956  -9.6511  -9.6511  -9.4103  -9.4103  -7.4911  -7.4911
    -3.9083  -3.9083  -3.5372  -3.5372  -1.7399  -1.7399  -1.4840  -1.4840
     1.2479   1.2479   1.5771   1.5771   3.8980   3.8980   4.3374   4.3374

     occupation numbers 
     1.0000   1.0000   1.0000   1.0000   1.0000   1.0000   1.0000   1.0000
     1.0000   1.0000   1.0000   1.0000   1.0000   1.0000   1.0000   1.0000
     1.0000   1.0000   1.0000   1.0000   1.0000   1.0000   1.0000   1.0000
     0.0000   0.0000   0.0000   0.0000   0.0000   0.0000   0.0000   0.0000

          k =-0.1250-0.1443 0.2188 (  8014 PWs)   bands (ev):

   -19.2041 -19.2041 -14.0692 -14.0692 -13.6765 -13.6765 -12.1595 -12.1595
   -11.4956 -11.4956  -9.6511  -9.6511  -9.4103  -9.4103  -7.4911  -7.4911
    -3.9083  -3.9083  -3.5372  -3.5372  -1.7399  -1.7399  -1.4840  -1.4840
     1.2479   1.2479   1.5771   1.5771   3.8979   3.8980   4.3374   4.3374

     occupation numbers 
     1.0000   1.0000   1.0000   1.0000   1.0000   1.0000   1.0000   1.0000
     1.0000   1.0000   1.0000   1.0000   1.0000   1.0000   1.0000   1.0000
     1.0000   1.0000   1.0000   1.0000   1.0000   1.0000   1.0000   1.0000
     0.0000   0.0000   0.0000   0.0000   0.0000   0.0000   0.0000   0.0000

          k = 0.0000-0.0722 0.0312 (  8013 PWs)   bands (ev):

   -19.3880 -19.3880 -13.0294 -13.0294 -12.8544 -12.8544 -12.2800 -12.2800
   -12.0345 -12.0345 -10.5192 -10.5192 -10.4516 -10.4516  -7.7128  -7.7128
    -3.2159  -3.2159  -3.1597  -3.1597  -0.6820  -0.6820  -0.6053  -0.6053
     0.4716   0.4716   0.5565   0.5565   3.0992   3.0992   5.3994   5.3995

     occupation numbers 
     1.0000   1.0000   1.0000   1.0000   1.0000   1.0000   1.0000   1.0000
     1.0000   1.0000   1.0000   1.0000   1.0000   1.0000   1.0000   1.0000
     1.0000   1.0000   1.0000   1.0000   0.9993   0.9993   0.9975   0.9975
     0.0026   0.0026   0.0006   0.0006   0.0000   0.0000   0.0000   0.0000

          k = 0.0000-0.0722 0.0938 (  8000 PWs)   bands (ev):

   -19.3880 -19.3880 -13.0294 -13.0294 -12.8544 -12.8544 -12.2800 -12.2800
   -12.0345 -12.0345 -10.5192 -10.5192 -10.4516 -10.4516  -7.7129  -7.7129
    -3.2159  -3.2159  -3.1597  -3.1597  -0.6820  -0.6820  -0.6053  -0.6053
     0.4716   0.4716   0.5565   0.5565   3.1954   3.1954   4.9895   4.9895

     occupation numbers 
     1.0000   1.0000   1.0000   1.0000   1.0000   1.0000   1.0000   1.0000
     1.0000   1.0000   1.0000   1.0000   1.0000   1.0000   1.0000   1.0000
     1.0000   1.0000   1.0000   1.0000   0.9993   0.9993   0.9975   0.9975
     0.0026   0.0026   0.0006   0.0006   0.0000   0.0000   0.0000   0.0000

          k = 0.0000-0.0722 0.1562 (  8000 PWs)   bands (ev):

   -19.3880 -19.3880 -13.0294 -13.0294 -12.8544 -12.8544 -12.2800 -12.2800
   -12.0345 -12.0345 -10.5192 -10.5192 -10.4516 -10.4516  -7.7130  -7.7130
    -3.2159  -3.2159  -3.1597  -3.1597  -0.6820  -0.6820  -0.6054  -0.6054
     0.4715   0.4715   0.5565   0.5565   3.3846   3.3846   4.5091   4.5091

     occupation numbers 
     1.0000   1.0000   1.0000   1.0000   1.0000   1.0000   1.0000   1.0000
     1.0000   1.0000   1.0000   1.0000   1.0000   1.0000   1.0000   1.0000
     1.0000   1.0000   1.0000   1.0000   0.9993   0.9993   0.9975   0.9975
     0.0026   0.0026   0.0006   0.0006   0.0000   0.0000   0.0000   0.0000

          k = 0.0000-0.0722 0.2188 (  8008 PWs)   bands (ev):

   -19.3880 -19.3880 -13.0294 -13.0294 -12.8544 -12.8544 -12.2800 -12.2800
   -12.0345 -12.0345 -10.5192 -10.5192 -10.4516 -10.4516  -7.7131  -7.7131
    -3.2159  -3.2159  -3.1598  -3.1598  -0.6821  -0.6821  -0.6054  -0.6054
     0.4715   0.4715   0.5564   0.5564   3.6496   3.6496   4.0860   4.0860

     occupation numbers 
     1.0000   1.0000   1.0000   1.0000   1.0000   1.0000   1.0000   1.0000
     1.0000   1.0000   1.0000   1.0000   1.0000   1.0000   1.0000   1.0000
     1.0000   1.0000   1.0000   1.0000   0.9993   0.9993   0.9975   0.9975
     0.0026   0.0026   0.0006   0.0006   0.0000   0.0000   0.0000   0.0000

          k = 0.3750 0.0000 0.0312 (  7998 PWs)   bands (ev):

   -18.5935 -18.5935 -15.2811 -15.2811 -15.2793 -15.2793 -11.1913 -11.1913
   -11.1905 -11.1905  -7.7036  -7.7036  -7.7023  -7.7023  -6.7588  -6.7588
    -5.8316  -5.8316  -4.4542  -4.4542  -3.0390  -3.0390  -3.0377  -3.0377
     2.7511   2.7511   2.7523   2.7523   4.1886   4.1886   6.4531   6.4532

     occupation numbers 
     1.0000   1.0000   1.0000   1.0000   1.0000   1.0000   1.0000   1.0000
     1.0000   1.0000   1.0000   1.0000   1.0000   1.0000   1.0000   1.0000
     1.0000   1.0000   1.0000   1.0000   1.0000   1.0000   1.0000   1.0000
     0.0000   0.0000   0.0000   0.0000   0.0000   0.0000   0.0000   0.0000

          k = 0.3750 0.0000 0.0938 (  8003 PWs)   bands (ev):

   -18.5935 -18.5935 -15.2811 -15.2811 -15.2793 -15.2793 -11.1913 -11.1913
   -11.1905 -11.1905  -7.7036  -7.7036  -7.7023  -7.7023  -6.7589  -6.7589
    -5.8316  -5.8316  -4.4542  -4.4542  -3.0390  -3.0390  -3.0377  -3.0377
     2.7510   2.7510   2.7522   2.7522   4.2833   4.2833   6.0540   6.0541

     occupation numbers 
     1.0000   1.0000   1.0000   1.0000   1.0000   1.0000   1.0000   1.0000
     1.0000   1.0000   1.0000   1.0000   1.0000   1.0000   1.0000   1.0000
     1.0000   1.0000   1.0000   1.0000   1.0000   1.0000   1.0000   1.0000
     0.0000   0.0000   0.0000   0.0000   0.0000   0.0000   0.0000   0.0000

          k = 0.3750 0.0000 0.1562 (  7997 PWs)   bands (ev):

   -18.5935 -18.5935 -15.2811 -15.2811 -15.2793 -15.2793 -11.1913 -11.1913
   -11.1905 -11.1905  -7.7036  -7.7036  -7.7023  -7.7023  -6.7590  -6.7590
    -5.8316  -5.8316  -4.4541  -4.4541  -3.0391  -3.0391  -3.0378  -3.0378
     2.7509   2.7509   2.7521   2.7521   4.4689   4.4689   5.5840   5.5840

     occupation numbers 
     1.0000   1.0000   1.0000   1.0000   1.0000   1.0000   1.0000   1.0000
     1.0000   1.0000   1.0000   1.0000   1.0000   1.0000   1.0000   1.0000
     1.0000   1.0000   1.0000   1.0000   1.0000   1.0000   1.0000   1.0000
     0.0000   0.0000   0.0000   0.0000   0.0000   0.0000   0.0000   0.0000

          k = 0.3750 0.0000 0.2188 (  8011 PWs)   bands (ev):

   -18.5935 -18.5935 -15.2811 -15.2811 -15.2793 -15.2793 -11.1913 -11.1913
   -11.1905 -11.1905  -7.7036  -7.7036  -7.7023  -7.7023  -6.7591  -6.7591
    -5.8316  -5.8316  -4.4541  -4.4541  -3.0392  -3.0392  -3.0379  -3.0379
     2.7508   2.7508   2.7520   2.7520   4.7252   4.7252   5.1728   5.1728

     occupation numbers 
     1.0000   1.0000   1.0000   1.0000   1.0000   1.0000   1.0000   1.0000
     1.0000   1.0000   1.0000   1.0000   1.0000   1.0000   1.0000   1.0000
     1.0000   1.0000   1.0000   1.0000   1.0000   1.0000   1.0000   1.0000
     0.0000   0.0000   0.0000   0.0000   0.0000   0.0000   0.0000   0.0000

          k =-0.3125 0.3969 0.0312 (  7989 PWs)   bands (ev):

   -17.9269 -17.9269 -16.4956 -16.4956 -15.5637 -15.5637 -11.3973 -11.3973
    -9.7780  -9.7780  -7.4160  -7.4160  -6.6925  -6.6925  -6.5795  -6.5795
    -5.9705  -5.9705  -5.2391  -5.2391  -4.3323  -4.3323  -3.3829  -3.3829
     2.9058   2.9058   4.4146   4.4146   5.1089   5.1089   7.0160   7.0162

     occupation numbers 
     1.0000   1.0000   1.0000   1.0000   1.0000   1.0000   1.0000   1.0000
     1.0000   1.0000   1.0000   1.0000   1.0000   1.0000   1.0000   1.0000
     1.0000   1.0000   1.0000   1.0000   1.0000   1.0000   1.0000   1.0000
     0.0000   0.0000   0.0000   0.0000   0.0000   0.0000   0.0000   0.0000

          k = 0.5000 0.0722 0.0312 (  7989 PWs)   bands (ev):

   -17.9269 -17.9269 -16.4956 -16.4956 -15.5637 -15.5637 -11.3973 -11.3973
    -9.7780  -9.7780  -7.4160  -7.4160  -6.6925  -6.6925  -6.5795  -6.5795
    -5.9705  -5.9705  -5.2391  -5.2391  -4.3323  -4.3323  -3.3829  -3.3829
     2.9058   2.9058   4.4146   4.4146   5.1089   5.1089   7.0160   7.0163

     occupation numbers 
     1.0000   1.0000   1.0000   1.0000   1.0000   1.0000   1.0000   1.0000
     1.0000   1.0000   1.0000   1.0000   1.0000   1.0000   1.0000   1.0000
     1.0000   1.0000   1.0000   1.0000   1.0000   1.0000   1.0000   1.0000
     0.0000   0.0000   0.0000   0.0000   0.0000   0.0000   0.0000   0.0000

          k =-0.3125 0.3969 0.0938 (  7985 PWs)   bands (ev):

   -17.9269 -17.9269 -16.4956 -16.4956 -15.5637 -15.5637 -11.3973 -11.3973
    -9.7780  -9.7780  -7.4159  -7.4159  -6.6925  -6.6925  -6.5795  -6.5795
    -5.9706  -5.9706  -5.2391  -5.2391  -4.3324  -4.3324  -3.3829  -3.3829
     2.9056   2.9056   4.4143   4.4143   5.2017   5.2018   6.8479   6.8483

     occupation numbers 
     1.0000   1.0000   1.0000   1.0000   1.0000   1.0000   1.0000   1.0000
     1.0000   1.0000   1.0000   1.0000   1.0000   1.0000   1.0000   1.0000
     1.0000   1.0000   1.0000   1.0000   1.0000   1.0000   1.0000   1.0000
     0.0000   0.0000   0.0000   0.0000   0.0000   0.0000   0.0000   0.0000

          k = 0.5000 0.0722 0.0938 (  7985 PWs)   bands (ev):

   -17.9269 -17.9269 -16.4956 -16.4956 -15.5637 -15.5637 -11.3973 -11.3973
    -9.7780  -9.7780  -7.4159  -7.4159  -6.6925  -6.6925  -6.5795  -6.5795
    -5.9706  -5.9706  -5.2391  -5.2391  -4.3324  -4.3324  -3.3829  -3.3829
     2.9056   2.9056   4.4143   4.4143   5.2017   5.2017   6.8483   6.8484

     occupation numbers 
     1.0000   1.0000   1.0000   1.0000   1.0000   1.0000   1.0000   1.0000
     1.0000   1.0000   1.0000   1.0000   1.0000   1.0000   1.0000   1.0000
     1.0000   1.0000   1.0000   1.0000   1.0000   1.0000   1.0000   1.0000
     0.0000   0.0000   0.0000   0.0000   0.0000   0.0000   0.0000   0.0000

          k =-0.3125 0.3969 0.1562 (  7990 PWs)   bands (ev):

   -17.9269 -17.9269 -16.4956 -16.4956 -15.5637 -15.5637 -11.3973 -11.3973
    -9.7780  -9.7780  -7.4160  -7.4160  -6.6925  -6.6925  -6.5795  -6.5795
    -5.9707  -5.9707  -5.2391  -5.2391  -4.3324  -4.3324  -3.3830  -3.3830
     2.9054   2.9054   4.4139   4.4139   5.3833   5.3833   6.4602   6.4615

     occupation numbers 
     1.0000   1.0000   1.0000   1.0000   1.0000   1.0000   1.0000   1.0000
     1.0000   1.0000   1.0000   1.0000   1.0000   1.0000   1.0000   1.0000
     1.0000   1.0000   1.0000   1.0000   1.0000   1.0000   1.0000   1.0000
     0.0000   0.0000   0.0000   0.0000   0.0000   0.0000   0.0000   0.0000

          k = 0.5000 0.0722 0.1562 (  7990 PWs)   bands (ev):

   -17.9269 -17.9269 -16.4956 -16.4956 -15.5637 -15.5637 -11.3973 -11.3973
    -9.7780  -9.7780  -7.4160  -7.4160  -6.6925  -6.6925  -6.5795  -6.5795
    -5.9707  -5.9707  -5.2391  -5.2391  -4.3324  -4.3324  -3.3830  -3.3830
     2.9054   2.9054   4.4139   4.4139   5.3832   5.3833   6.4600   6.4606

     occupation numbers 
     1.0000   1.0000   1.0000   1.0000   1.0000   1.0000   1.0000   1.0000
     1.0000   1.0000   1.0000   1.0000   1.0000   1.0000   1.0000   1.0000
     1.0000   1.0000   1.0000   1.0000   1.0000   1.0000   1.0000   1.0000
     0.0000   0.0000   0.0000   0.0000   0.0000   0.0000   0.0000   0.0000

          k =-0.3125 0.3969 0.2188 (  7980 PWs)   bands (ev):

   -17.9269 -17.9269 -16.4956 -16.4956 -15.5637 -15.5637 -11.3973 -11.3973
    -9.7780  -9.7780  -7.4159  -7.4159  -6.6925  -6.6925  -6.5795  -6.5795
    -5.9708  -5.9708  -5.2391  -5.2391  -4.3325  -4.3325  -3.3830  -3.3830
     2.9052   2.9052   4.4136   4.4136   5.6317   5.6318   6.0742   6.0742

     occupation numbers 
     1.0000   1.0000   1.0000   1.0000   1.0000   1.0000   1.0000   1.0000
     1.0000   1.0000   1.0000   1.0000   1.0000   1.0000   1.0000   1.0000
     1.0000   1.0000   1.0000   1.0000   1.0000   1.0000   1.0000   1.0000
     0.0000   0.0000   0.0000   0.0000   0.0000   0.0000   0.0000   0.0000

          k = 0.5000 0.0722 0.2188 (  7980 PWs)   bands (ev):

   -17.9269 -17.9269 -16.4956 -16.4956 -15.5637 -15.5637 -11.3973 -11.3973
    -9.7780  -9.7780  -7.4159  -7.4159  -6.6925  -6.6925  -6.5795  -6.5795
    -5.9708  -5.9708  -5.2391  -5.2391  -4.3325  -4.3325  -3.3830  -3.3830
     2.9052   2.9052   4.4136   4.4136   5.6316   5.6318   6.0741   6.0749

     occupation numbers 
     1.0000   1.0000   1.0000   1.0000   1.0000   1.0000   1.0000   1.0000
     1.0000   1.0000   1.0000   1.0000   1.0000   1.0000   1.0000   1.0000
     1.0000   1.0000   1.0000   1.0000   1.0000   1.0000   1.0000   1.0000
     0.0000   0.0000   0.0000   0.0000   0.0000   0.0000   0.0000   0.0000

          k =-0.4375 0.4691 0.0312 (  7999 PWs)   bands (ev):

   -17.5059 -17.5059 -17.0282 -17.0282 -15.6206 -15.6206 -11.4410 -11.4410
    -9.0137  -9.0137  -8.2224  -8.2224  -6.3161  -6.3161  -6.1875  -6.1875
    -5.6988  -5.6988  -5.4798  -5.4798  -4.9311  -4.9311  -3.4529  -3.4529
     2.9277   2.9277   5.3092   5.3092   5.6933   5.6937   6.2112   6.2112

     occupation numbers 
     1.0000   1.0000   1.0000   1.0000   1.0000   1.0000   1.0000   1.0000
     1.0000   1.0000   1.0000   1.0000   1.0000   1.0000   1.0000   1.0000
     1.0000   1.0000   1.0000   1.0000   1.0000   1.0000   1.0000   1.0000
     0.0000   0.0000   0.0000   0.0000   0.0000   0.0000   0.0000   0.0000

          k = 0.6250 0.1443 0.0312 (  7999 PWs)   bands (ev):

   -17.5059 -17.5059 -17.0282 -17.0282 -15.6206 -15.6206 -11.4410 -11.4410
    -9.0137  -9.0137  -8.2224  -8.2224  -6.3161  -6.3161  -6.1875  -6.1875
    -5.6988  -5.6988  -5.4798  -5.4798  -4.9311  -4.9311  -3.4529  -3.4529
     2.9277   2.9277   5.3092   5.3092   5.6933   5.6934   6.2112   6.2112

     occupation numbers 
     1.0000   1.0000   1.0000   1.0000   1.0000   1.0000   1.0000   1.0000
     1.0000   1.0000   1.0000   1.0000   1.0000   1.0000   1.0000   1.0000
     1.0000   1.0000   1.0000   1.0000   1.0000   1.0000   1.0000   1.0000
     0.0000   0.0000   0.0000   0.0000   0.0000   0.0000   0.0000   0.0000

          k =-0.4375 0.4691 0.0938 (  7990 PWs)   bands (ev):

   -17.5059 -17.5059 -17.0282 -17.0282 -15.6206 -15.6206 -11.4410 -11.4410
    -9.0137  -9.0137  -8.2224  -8.2224  -6.3161  -6.3161  -6.1875  -6.1875
    -5.6988  -5.6988  -5.4799  -5.4799  -4.9312  -4.9312  -3.4530  -3.4530
     2.9275   2.9275   5.3081   5.3081   5.7826   5.7827   6.2121   6.2121

     occupation numbers 
     1.0000   1.0000   1.0000   1.0000   1.0000   1.0000   1.0000   1.0000
     1.0000   1.0000   1.0000   1.0000   1.0000   1.0000   1.0000   1.0000
     1.0000   1.0000   1.0000   1.0000   1.0000   1.0000   1.0000   1.0000
     0.0000   0.0000   0.0000   0.0000   0.0000   0.0000   0.0000   0.0000

          k = 0.6250 0.1443 0.0938 (  7990 PWs)   bands (ev):

   -17.5059 -17.5059 -17.0282 -17.0282 -15.6206 -15.6206 -11.4410 -11.4410
    -9.0137  -9.0137  -8.2224  -8.2224  -6.3161  -6.3161  -6.1875  -6.1875
    -5.6988  -5.6988  -5.4799  -5.4799  -4.9312  -4.9312  -3.4530  -3.4530
     2.9275   2.9275   5.3081   5.3081   5.7826   5.7826   6.2120   6.2121

     occupation numbers 
     1.0000   1.0000   1.0000   1.0000   1.0000   1.0000   1.0000   1.0000
     1.0000   1.0000   1.0000   1.0000   1.0000   1.0000   1.0000   1.0000
     1.0000   1.0000   1.0000   1.0000   1.0000   1.0000   1.0000   1.0000
     0.0000   0.0000   0.0000   0.0000   0.0000   0.0000   0.0000   0.0000

          k =-0.4375 0.4691 0.1562 (  7983 PWs)   bands (ev):

   -17.5059 -17.5059 -17.0282 -17.0282 -15.6206 -15.6206 -11.4410 -11.4410
    -9.0137  -9.0137  -8.2224  -8.2224  -6.3161  -6.3161  -6.1875  -6.1875
    -5.6988  -5.6988  -5.4800  -5.4800  -4.9313  -4.9313  -3.4530  -3.4530
     2.9272   2.9272   5.3066   5.3066   5.9525   5.9527   6.2159   6.2160

     occupation numbers 
     1.0000   1.0000   1.0000   1.0000   1.0000   1.0000   1.0000   1.0000
     1.0000   1.0000   1.0000   1.0000   1.0000   1.0000   1.0000   1.0000
     1.0000   1.0000   1.0000   1.0000   1.0000   1.0000   1.0000   1.0000
     0.0000   0.0000   0.0000   0.0000   0.0000   0.0000   0.0000   0.0000

          k = 0.6250 0.1443 0.1562 (  7983 PWs)   bands (ev):

   -17.5059 -17.5059 -17.0282 -17.0282 -15.6206 -15.6206 -11.4410 -11.4410
    -9.0137  -9.0137  -8.2224  -8.2224  -6.3161  -6.3161  -6.1875  -6.1875
    -5.6988  -5.6988  -5.4800  -5.4800  -4.9313  -4.9313  -3.4530  -3.4530
     2.9272   2.9272   5.3066   5.3066   5.9525   5.9527   6.2159   6.2160

     occupation numbers 
     1.0000   1.0000   1.0000   1.0000   1.0000   1.0000   1.0000   1.0000
     1.0000   1.0000   1.0000   1.0000   1.0000   1.0000   1.0000   1.0000
     1.0000   1.0000   1.0000   1.0000   1.0000   1.0000   1.0000   1.0000
     0.0000   0.0000   0.0000   0.0000   0.0000   0.0000   0.0000   0.0000

          k =-0.4375 0.4691 0.2188 (  7965 PWs)   bands (ev):

   -17.5059 -17.5059 -17.0282 -17.0282 -15.6205 -15.6205 -11.4410 -11.4410
    -9.0137  -9.0137  -8.2224  -8.2224  -6.3161  -6.3161  -6.1875  -6.1875
    -5.6988  -5.6988  -5.4800  -5.4800  -4.9314  -4.9314  -3.4530  -3.4530
     2.9271   2.9271   5.3056   5.3056   6.1394   6.1394   6.2507   6.2511

     occupation numbers 
     1.0000   1.0000   1.0000   1.0000   1.0000   1.0000   1.0000   1.0000
     1.0000   1.0000   1.0000   1.0000   1.0000   1.0000   1.0000   1.0000
     1.0000   1.0000   1.0000   1.0000   1.0000   1.0000   1.0000   1.0000
     0.0000   0.0000   0.0000   0.0000   0.0000   0.0000   0.0000   0.0000

          k = 0.6250 0.1443 0.2188 (  7965 PWs)   bands (ev):

   -17.5059 -17.5059 -17.0282 -17.0282 -15.6205 -15.6205 -11.4410 -11.4410
    -9.0137  -9.0137  -8.2224  -8.2224  -6.3161  -6.3161  -6.1875  -6.1875
    -5.6988  -5.6988  -5.4800  -5.4800  -4.9314  -4.9314  -3.4530  -3.4530
     2.9271   2.9271   5.3056   5.3056   6.1394   6.1394   6.2507   6.2510

     occupation numbers 
     1.0000   1.0000   1.0000   1.0000   1.0000   1.0000   1.0000   1.0000
     1.0000   1.0000   1.0000   1.0000   1.0000   1.0000   1.0000   1.0000
     1.0000   1.0000   1.0000   1.0000   1.0000   1.0000   1.0000   1.0000
     0.0000   0.0000   0.0000   0.0000   0.0000   0.0000   0.0000   0.0000

          k = 0.4375-0.0361 0.0312 (  8004 PWs)   bands (ev):

   -18.2898 -18.2898 -15.9113 -15.9113 -15.4501 -15.4501 -11.3120 -11.3120
   -10.5064 -10.5064  -7.2014  -7.2014  -7.0638  -7.0638  -6.6110  -6.6110
    -6.3981  -6.3981  -4.8208  -4.8208  -3.6950  -3.6950  -3.2439  -3.2439
     2.8529   2.8529   3.5540   3.5540   4.6071   4.6071   6.8407   6.8413

     occupation numbers 
     1.0000   1.0000   1.0000   1.0000   1.0000   1.0000   1.0000   1.0000
     1.0000   1.0000   1.0000   1.0000   1.0000   1.0000   1.0000   1.0000
     1.0000   1.0000   1.0000   1.0000   1.0000   1.0000   1.0000   1.0000
     0.0000   0.0000   0.0000   0.0000   0.0000   0.0000   0.0000   0.0000

          k =-0.2500-0.3608 0.0312 (  8004 PWs)   bands (ev):

   -18.2898 -18.2898 -15.9113 -15.9113 -15.4501 -15.4501 -11.3120 -11.3120
   -10.5064 -10.5064  -7.2014  -7.2014  -7.0638  -7.0638  -6.6110  -6.6110
    -6.3981  -6.3981  -4.8208  -4.8208  -3.6950  -3.6950  -3.2439  -3.2439
     2.8529   2.8529   3.5540   3.5540   4.6071   4.6071   6.8405   6.8407

     occupation numbers 
     1.0000   1.0000   1.0000   1.0000   1.0000   1.0000   1.0000   1.0000
     1.0000   1.0000   1.0000   1.0000   1.0000   1.0000   1.0000   1.0000
     1.0000   1.0000   1.0000   1.0000   1.0000   1.0000   1.0000   1.0000
     0.0000   0.0000   0.0000   0.0000   0.0000   0.0000   0.0000   0.0000

          k = 0.4375-0.0361 0.0938 (  8000 PWs)   bands (ev):

   -18.2898 -18.2898 -15.9113 -15.9113 -15.4501 -15.4501 -11.3120 -11.3120
   -10.5064 -10.5064  -7.2014  -7.2014  -7.0638  -7.0638  -6.6110  -6.6110
    -6.3982  -6.3982  -4.8208  -4.8208  -3.6950  -3.6950  -3.2440  -3.2440
     2.8527   2.8527   3.5538   3.5538   4.7010   4.7010   6.4541   6.4542

     occupation numbers 
     1.0000   1.0000   1.0000   1.0000   1.0000   1.0000   1.0000   1.0000
     1.0000   1.0000   1.0000   1.0000   1.0000   1.0000   1.0000   1.0000
     1.0000   1.0000   1.0000   1.0000   1.0000   1.0000   1.0000   1.0000
     0.0000   0.0000   0.0000   0.0000   0.0000   0.0000   0.0000   0.0000

          k =-0.2500-0.3608 0.0938 (  8000 PWs)   bands (ev):

   -18.2898 -18.2898 -15.9113 -15.9113 -15.4501 -15.4501 -11.3120 -11.3120
   -10.5064 -10.5064  -7.2014  -7.2014  -7.0638  -7.0638  -6.6110  -6.6110
    -6.3982  -6.3982  -4.8208  -4.8208  -3.6950  -3.6950  -3.2440  -3.2440
     2.8527   2.8527   3.5538   3.5538   4.7010   4.7011   6.4542   6.4543

     occupation numbers 
     1.0000   1.0000   1.0000   1.0000   1.0000   1.0000   1.0000   1.0000
     1.0000   1.0000   1.0000   1.0000   1.0000   1.0000   1.0000   1.0000
     1.0000   1.0000   1.0000   1.0000   1.0000   1.0000   1.0000   1.0000
     0.0000   0.0000   0.0000   0.0000   0.0000   0.0000   0.0000   0.0000

          k = 0.4375-0.0361 0.1562 (  7991 PWs)   bands (ev):

   -18.2898 -18.2898 -15.9113 -15.9113 -15.4501 -15.4501 -11.3120 -11.3120
   -10.5064 -10.5064  -7.2014  -7.2014  -7.0638  -7.0638  -6.6110  -6.6110
    -6.3983  -6.3983  -4.8208  -4.8208  -3.6951  -3.6951  -3.2440  -3.2440
     2.8526   2.8526   3.5537   3.5537   4.8850   4.8850   5.9923   5.9924

     occupation numbers 
     1.0000   1.0000   1.0000   1.0000   1.0000   1.0000   1.0000   1.0000
     1.0000   1.0000   1.0000   1.0000   1.0000   1.0000   1.0000   1.0000
     1.0000   1.0000   1.0000   1.0000   1.0000   1.0000   1.0000   1.0000
     0.0000   0.0000   0.0000   0.0000   0.0000   0.0000   0.0000   0.0000

          k =-0.2500-0.3608 0.1562 (  7991 PWs)   bands (ev):

   -18.2898 -18.2898 -15.9113 -15.9113 -15.4501 -15.4501 -11.3120 -11.3120
   -10.5064 -10.5064  -7.2014  -7.2014  -7.0638  -7.0638  -6.6110  -6.6110
    -6.3983  -6.3983  -4.8208  -4.8208  -3.6951  -3.6951  -3.2440  -3.2440
     2.8526   2.8526   3.5537   3.5537   4.8851   4.8851   5.9922   5.9923

     occupation numbers 
     1.0000   1.0000   1.0000   1.0000   1.0000   1.0000   1.0000   1.0000
     1.0000   1.0000   1.0000   1.0000   1.0000   1.0000   1.0000   1.0000
     1.0000   1.0000   1.0000   1.0000   1.0000   1.0000   1.0000   1.0000
     0.0000   0.0000   0.0000   0.0000   0.0000   0.0000   0.0000   0.0000

          k = 0.4375-0.0361 0.2188 (  7996 PWs)   bands (ev):

   -18.2898 -18.2898 -15.9113 -15.9113 -15.4501 -15.4501 -11.3120 -11.3120
   -10.5064 -10.5064  -7.2014  -7.2014  -7.0638  -7.0638  -6.6110  -6.6110
    -6.3984  -6.3984  -4.8208  -4.8208  -3.6952  -3.6952  -3.2441  -3.2441
     2.8525   2.8525   3.5536   3.5536   5.1378   5.1379   5.5873   5.5874

     occupation numbers 
     1.0000   1.0000   1.0000   1.0000   1.0000   1.0000   1.0000   1.0000
     1.0000   1.0000   1.0000   1.0000   1.0000   1.0000   1.0000   1.0000
     1.0000   1.0000   1.0000   1.0000   1.0000   1.0000   1.0000   1.0000
     0.0000   0.0000   0.0000   0.0000   0.0000   0.0000   0.0000   0.0000

          k =-0.2500-0.3608 0.2188 (  7996 PWs)   bands (ev):

   -18.2898 -18.2898 -15.9113 -15.9113 -15.4501 -15.4501 -11.3120 -11.3120
   -10.5064 -10.5064  -7.2014  -7.2014  -7.0638  -7.0638  -6.6110  -6.6110
    -6.3984  -6.3984  -4.8208  -4.8208  -3.6952  -3.6952  -3.2441  -3.2441
     2.8525   2.8525   3.5536   3.5536   5.1378   5.1378   5.5873   5.5874

     occupation numbers 
     1.0000   1.0000   1.0000   1.0000   1.0000   1.0000   1.0000   1.0000
     1.0000   1.0000   1.0000   1.0000   1.0000   1.0000   1.0000   1.0000
     1.0000   1.0000   1.0000   1.0000   1.0000   1.0000   1.0000   1.0000
     0.0000   0.0000   0.0000   0.0000   0.0000   0.0000   0.0000   0.0000

          k = 0.3125 0.0361 0.0312 (  8001 PWs)   bands (ev):

   -18.8372 -18.8372 -15.0549 -15.0549 -14.6123 -14.6123 -11.8212 -11.8212
   -11.0493 -11.0493  -8.4227  -8.4227  -8.1864  -8.1864  -7.0500  -7.0500
    -5.1133  -5.1133  -4.1457  -4.1457  -2.7707  -2.7707  -2.3966  -2.3966
     2.0401   2.0401   2.5802   2.5802   3.8535   3.8535   6.1324   6.1325

     occupation numbers 
     1.0000   1.0000   1.0000   1.0000   1.0000   1.0000   1.0000   1.0000
     1.0000   1.0000   1.0000   1.0000   1.0000   1.0000   1.0000   1.0000
     1.0000   1.0000   1.0000   1.0000   1.0000   1.0000   1.0000   1.0000
     0.0000   0.0000   0.0000   0.0000   0.0000   0.0000   0.0000   0.0000

          k =-0.1250-0.2887 0.0312 (  8001 PWs)   bands (ev):

   -18.8372 -18.8372 -15.0549 -15.0549 -14.6123 -14.6123 -11.8212 -11.8212
   -11.0493 -11.0493  -8.4227  -8.4227  -8.1864  -8.1864  -7.0500  -7.0500
    -5.1133  -5.1133  -4.1457  -4.1457  -2.7707  -2.7707  -2.3966  -2.3966
     2.0401   2.0401   2.5802   2.5802   3.8535   3.8535   6.1324   6.1325

     occupation numbers 
     1.0000   1.0000   1.0000   1.0000   1.0000   1.0000   1.0000   1.0000
     1.0000   1.0000   1.0000   1.0000   1.0000   1.0000   1.0000   1.0000
     1.0000   1.0000   1.0000   1.0000   1.0000   1.0000   1.0000   1.0000
     0.0000   0.0000   0.0000   0.0000   0.0000   0.0000   0.0000   0.0000

          k = 0.3125 0.0361 0.0938 (  7996 PWs)   bands (ev):

   -18.8372 -18.8372 -15.0549 -15.0549 -14.6123 -14.6123 -11.8212 -11.8212
   -11.0493 -11.0493  -8.4227  -8.4227  -8.1864  -8.1864  -7.0501  -7.0501
    -5.1133  -5.1133  -4.1457  -4.1457  -2.7708  -2.7708  -2.3967  -2.3967
     2.0401   2.0401   2.5802   2.5802   3.9487   3.9487   5.7287   5.7287

     occupation numbers 
     1.0000   1.0000   1.0000   1.0000   1.0000   1.0000   1.0000   1.0000
     1.0000   1.0000   1.0000   1.0000   1.0000   1.0000   1.0000   1.0000
     1.0000   1.0000   1.0000   1.0000   1.0000   1.0000   1.0000   1.0000
     0.0000   0.0000   0.0000   0.0000   0.0000   0.0000   0.0000   0.0000

          k =-0.1250-0.2887 0.0938 (  7996 PWs)   bands (ev):

   -18.8372 -18.8372 -15.0548 -15.0548 -14.6123 -14.6123 -11.8212 -11.8212
   -11.0493 -11.0493  -8.4227  -8.4227  -8.1864  -8.1864  -7.0501  -7.0501
    -5.1133  -5.1133  -4.1457  -4.1457  -2.7708  -2.7708  -2.3967  -2.3967
     2.0401   2.0401   2.5802   2.5802   3.9487   3.9487   5.7286   5.7287

     occupation numbers 
     1.0000   1.0000   1.0000   1.0000   1.0000   1.0000   1.0000   1.0000
     1.0000   1.0000   1.0000   1.0000   1.0000   1.0000   1.0000   1.0000
     1.0000   1.0000   1.0000   1.0000   1.0000   1.0000   1.0000   1.0000
     0.0000   0.0000   0.0000   0.0000   0.0000   0.0000   0.0000   0.0000

          k = 0.3125 0.0361 0.1562 (  7996 PWs)   bands (ev):

   -18.8372 -18.8372 -15.0549 -15.0549 -14.6123 -14.6123 -11.8212 -11.8212
   -11.0494 -11.0494  -8.4227  -8.4227  -8.1864  -8.1864  -7.0502  -7.0502
    -5.1133  -5.1133  -4.1457  -4.1457  -2.7709  -2.7709  -2.3967  -2.3967
     2.0400   2.0400   2.5801   2.5801   4.1355   4.1356   5.2546   5.2546

     occupation numbers 
     1.0000   1.0000   1.0000   1.0000   1.0000   1.0000   1.0000   1.0000
     1.0000   1.0000   1.0000   1.0000   1.0000   1.0000   1.0000   1.0000
     1.0000   1.0000   1.0000   1.0000   1.0000   1.0000   1.0000   1.0000
     0.0000   0.0000   0.0000   0.0000   0.0000   0.0000   0.0000   0.0000

          k =-0.1250-0.2887 0.1562 (  7996 PWs)   bands (ev):

   -18.8372 -18.8372 -15.0549 -15.0549 -14.6123 -14.6123 -11.8212 -11.8212
   -11.0493 -11.0493  -8.4227  -8.4227  -8.1864  -8.1864  -7.0502  -7.0502
    -5.1133  -5.1133  -4.1457  -4.1457  -2.7708  -2.7708  -2.3967  -2.3967
     2.0400   2.0400   2.5801   2.5801   4.1356   4.1356   5.2546   5.2547

     occupation numbers 
     1.0000   1.0000   1.0000   1.0000   1.0000   1.0000   1.0000   1.0000
     1.0000   1.0000   1.0000   1.0000   1.0000   1.0000   1.0000   1.0000
     1.0000   1.0000   1.0000   1.0000   1.0000   1.0000   1.0000   1.0000
     0.0000   0.0000   0.0000   0.0000   0.0000   0.0000   0.0000   0.0000

          k = 0.3125 0.0361 0.2188 (  8000 PWs)   bands (ev):

   -18.8372 -18.8372 -15.0549 -15.0549 -14.6123 -14.6123 -11.8212 -11.8212
   -11.0493 -11.0493  -8.4227  -8.4227  -8.1864  -8.1864  -7.0503  -7.0503
    -5.1132  -5.1132  -4.1457  -4.1457  -2.7709  -2.7709  -2.3968  -2.3968
     2.0399   2.0399   2.5801   2.5801   4.3946   4.3947   4.8393   4.8394

     occupation numbers 
     1.0000   1.0000   1.0000   1.0000   1.0000   1.0000   1.0000   1.0000
     1.0000   1.0000   1.0000   1.0000   1.0000   1.0000   1.0000   1.0000
     1.0000   1.0000   1.0000   1.0000   1.0000   1.0000   1.0000   1.0000
     0.0000   0.0000   0.0000   0.0000   0.0000   0.0000   0.0000   0.0000

          k =-0.1250-0.2887 0.2188 (  8000 PWs)   bands (ev):

   -18.8372 -18.8372 -15.0549 -15.0549 -14.6123 -14.6123 -11.8212 -11.8212
   -11.0493 -11.0493  -8.4227  -8.4227  -8.1864  -8.1864  -7.0503  -7.0503
    -5.1132  -5.1132  -4.1457  -4.1457  -2.7709  -2.7709  -2.3968  -2.3968
     2.0399   2.0399   2.5801   2.5801   4.3946   4.3946   4.8393   4.8393

     occupation numbers 
     1.0000   1.0000   1.0000   1.0000   1.0000   1.0000   1.0000   1.0000
     1.0000   1.0000   1.0000   1.0000   1.0000   1.0000   1.0000   1.0000
     1.0000   1.0000   1.0000   1.0000   1.0000   1.0000   1.0000   1.0000
     0.0000   0.0000   0.0000   0.0000   0.0000   0.0000   0.0000   0.0000

          k = 0.0000-0.2165 0.0312 (  8005 PWs)   bands (ev):

   -19.1428 -19.1428 -14.4445 -14.4445 -13.4725 -13.4725 -12.6298 -12.6298
   -11.0188 -11.0188  -9.6119  -9.6119  -9.0562  -9.0562  -7.4170  -7.4170
    -4.0934  -4.0934  -3.6848  -3.6848  -2.0928  -2.0928  -1.4914  -1.4914
     1.1802   1.1802   1.9722   1.9722   3.4345   3.4345   5.7264   5.7264

     occupation numbers 
     1.0000   1.0000   1.0000   1.0000   1.0000   1.0000   1.0000   1.0000
     1.0000   1.0000   1.0000   1.0000   1.0000   1.0000   1.0000   1.0000
     1.0000   1.0000   1.0000   1.0000   1.0000   1.0000   1.0000   1.0000
     0.0000   0.0000   0.0000   0.0000   0.0000   0.0000   0.0000   0.0000

          k = 0.0000-0.2165 0.0938 (  8008 PWs)   bands (ev):

   -19.1428 -19.1428 -14.4445 -14.4445 -13.4725 -13.4725 -12.6298 -12.6298
   -11.0188 -11.0188  -9.6119  -9.6119  -9.0562  -9.0562  -7.4171  -7.4171
    -4.0934  -4.0934  -3.6848  -3.6848  -2.0929  -2.0929  -1.4914  -1.4914
     1.1802   1.1802   1.9722   1.9722   3.5303   3.5303   5.3188   5.3188

     occupation numbers 
     1.0000   1.0000   1.0000   1.0000   1.0000   1.0000   1.0000   1.0000
     1.0000   1.0000   1.0000   1.0000   1.0000   1.0000   1.0000   1.0000
     1.0000   1.0000   1.0000   1.0000   1.0000   1.0000   1.0000   1.0000
     0.0000   0.0000   0.0000   0.0000   0.0000   0.0000   0.0000   0.0000

          k = 0.0000-0.2165 0.1562 (  8016 PWs)   bands (ev):

   -19.1428 -19.1428 -14.4445 -14.4445 -13.4725 -13.4725 -12.6298 -12.6298
   -11.0188 -11.0188  -9.6119  -9.6119  -9.0562  -9.0562  -7.4172  -7.4172
    -4.0934  -4.0934  -3.6848  -3.6848  -2.0929  -2.0929  -1.4914  -1.4914
     1.1801   1.1801   1.9721   1.9721   3.7185   3.7185   4.8409   4.8409

     occupation numbers 
     1.0000   1.0000   1.0000   1.0000   1.0000   1.0000   1.0000   1.0000
     1.0000   1.0000   1.0000   1.0000   1.0000   1.0000   1.0000   1.0000
     1.0000   1.0000   1.0000   1.0000   1.0000   1.0000   1.0000   1.0000
     0.0000   0.0000   0.0000   0.0000   0.0000   0.0000   0.0000   0.0000

          k = 0.0000-0.2165 0.2188 (  8012 PWs)   bands (ev):

   -19.1428 -19.1428 -14.4445 -14.4445 -13.4725 -13.4725 -12.6298 -12.6298
   -11.0188 -11.0188  -9.6120  -9.6120  -9.0562  -9.0562  -7.4173  -7.4173
    -4.0934  -4.0934  -3.6848  -3.6848  -2.0930  -2.0930  -1.4915  -1.4915
     1.1801   1.1801   1.9721   1.9721   3.9808   3.9808   4.4211   4.4211

     occupation numbers 
     1.0000   1.0000   1.0000   1.0000   1.0000   1.0000   1.0000   1.0000
     1.0000   1.0000   1.0000   1.0000   1.0000   1.0000   1.0000   1.0000
     1.0000   1.0000   1.0000   1.0000   1.0000   1.0000   1.0000   1.0000
     0.0000   0.0000   0.0000   0.0000   0.0000   0.0000   0.0000   0.0000

          k = 0.6250 0.0000 0.0312 (  7987 PWs)   bands (ev):

   -17.1468 -17.1468 -16.6725 -16.6725 -16.6706 -16.6706  -9.8685  -9.8685
    -9.8675  -9.8675  -9.0570  -9.0570  -5.9591  -5.9591  -5.9587  -5.9587
    -5.6875  -5.6875  -5.0714  -5.0714  -4.5413  -4.5413  -4.5398  -4.5398
     4.5496   4.5496   4.5515   4.5515   5.4222   5.4222   6.1914   6.1920

     occupation numbers 
     1.0000   1.0000   1.0000   1.0000   1.0000   1.0000   1.0000   1.0000
     1.0000   1.0000   1.0000   1.0000   1.0000   1.0000   1.0000   1.0000
     1.0000   1.0000   1.0000   1.0000   1.0000   1.0000   1.0000   1.0000
     0.0000   0.0000   0.0000   0.0000   0.0000   0.0000   0.0000   0.0000

          k = 0.6250 0.0000 0.0938 (  7980 PWs)   bands (ev):

   -17.1468 -17.1468 -16.6725 -16.6725 -16.6706 -16.6706  -9.8685  -9.8685
    -9.8675  -9.8675  -9.0570  -9.0570  -5.9591  -5.9591  -5.9587  -5.9587
    -5.6875  -5.6875  -5.0714  -5.0714  -4.5414  -4.5414  -4.5398  -4.5398
     4.5490   4.5490   4.5509   4.5509   5.4199   5.4199   6.2853   6.2853

     occupation numbers 
     1.0000   1.0000   1.0000   1.0000   1.0000   1.0000   1.0000   1.0000
     1.0000   1.0000   1.0000   1.0000   1.0000   1.0000   1.0000   1.0000
     1.0000   1.0000   1.0000   1.0000   1.0000   1.0000   1.0000   1.0000
     0.0000   0.0000   0.0000   0.0000   0.0000   0.0000   0.0000   0.0000

          k = 0.6250 0.0000 0.1562 (  7970 PWs)   bands (ev):

   -17.1468 -17.1468 -16.6725 -16.6725 -16.6706 -16.6706  -9.8685  -9.8685
    -9.8675  -9.8675  -9.0570  -9.0570  -5.9591  -5.9591  -5.9587  -5.9587
    -5.6875  -5.6875  -5.0715  -5.0715  -4.5414  -4.5414  -4.5399  -4.5399
     4.5482   4.5482   4.5501   4.5501   5.4169   5.4170   6.4648   6.4651

     occupation numbers 
     1.0000   1.0000   1.0000   1.0000   1.0000   1.0000   1.0000   1.0000
     1.0000   1.0000   1.0000   1.0000   1.0000   1.0000   1.0000   1.0000
     1.0000   1.0000   1.0000   1.0000   1.0000   1.0000   1.0000   1.0000
     0.0000   0.0000   0.0000   0.0000   0.0000   0.0000   0.0000   0.0000

          k = 0.6250 0.0000 0.2188 (  7958 PWs)   bands (ev):

   -17.1468 -17.1468 -16.6725 -16.6725 -16.6706 -16.6706  -9.8685  -9.8685
    -9.8675  -9.8675  -9.0570  -9.0570  -5.9591  -5.9591  -5.9587  -5.9587
    -5.6875  -5.6875  -5.0716  -5.0716  -4.5415  -4.5415  -4.5400  -4.5400
     4.5476   4.5476   4.5495   4.5495   5.4151   5.4152   6.6977   6.6978

     occupation numbers 
     1.0000   1.0000   1.0000   1.0000   1.0000   1.0000   1.0000   1.0000
     1.0000   1.0000   1.0000   1.0000   1.0000   1.0000   1.0000   1.0000
     1.0000   1.0000   1.0000   1.0000   1.0000   1.0000   1.0000   1.0000
     0.0000   0.0000   0.0000   0.0000   0.0000   0.0000   0.0000   0.0000

          k =-0.4375 0.6134 0.0312 (  7977 PWs)   bands (ev):

   -17.5657 -17.5657 -16.6129 -16.6129 -16.1425 -16.1425 -10.6518 -10.6518
    -9.8364  -9.8364  -8.2329  -8.2329  -6.2585  -6.2585  -6.2186  -6.2186
    -5.5506  -5.5506  -5.4478  -5.4478  -4.4708  -4.4708  -3.9706  -3.9706
     3.6997   3.6997   4.5091   4.5091   5.6089   5.6089   6.2782   6.2782

     occupation numbers 
     1.0000   1.0000   1.0000   1.0000   1.0000   1.0000   1.0000   1.0000
     1.0000   1.0000   1.0000   1.0000   1.0000   1.0000   1.0000   1.0000
     1.0000   1.0000   1.0000   1.0000   1.0000   1.0000   1.0000   1.0000
     0.0000   0.0000   0.0000   0.0000   0.0000   0.0000   0.0000   0.0000

          k = 0.7500 0.0722 0.0312 (  7977 PWs)   bands (ev):

   -17.5657 -17.5657 -16.6129 -16.6129 -16.1425 -16.1425 -10.6518 -10.6518
    -9.8364  -9.8364  -8.2329  -8.2329  -6.2585  -6.2585  -6.2186  -6.2186
    -5.5506  -5.5506  -5.4478  -5.4478  -4.4708  -4.4708  -3.9706  -3.9706
     3.6997   3.6997   4.5090   4.5090   5.6089   5.6089   6.2782   6.2783

     occupation numbers 
     1.0000   1.0000   1.0000   1.0000   1.0000   1.0000   1.0000   1.0000
     1.0000   1.0000   1.0000   1.0000   1.0000   1.0000   1.0000   1.0000
     1.0000   1.0000   1.0000   1.0000   1.0000   1.0000   1.0000   1.0000
     0.0000   0.0000   0.0000   0.0000   0.0000   0.0000   0.0000   0.0000

          k =-0.4375 0.6134 0.0938 (  7982 PWs)   bands (ev):

   -17.5657 -17.5657 -16.6129 -16.6129 -16.1425 -16.1425 -10.6518 -10.6518
    -9.8364  -9.8364  -8.2329  -8.2329  -6.2584  -6.2584  -6.2186  -6.2186
    -5.5507  -5.5507  -5.4478  -5.4478  -4.4709  -4.4709  -3.9706  -3.9706
     3.6995   3.6995   4.5086   4.5086   5.6986   5.6986   6.2771   6.2773

     occupation numbers 
     1.0000   1.0000   1.0000   1.0000   1.0000   1.0000   1.0000   1.0000
     1.0000   1.0000   1.0000   1.0000   1.0000   1.0000   1.0000   1.0000
     1.0000   1.0000   1.0000   1.0000   1.0000   1.0000   1.0000   1.0000
     0.0000   0.0000   0.0000   0.0000   0.0000   0.0000   0.0000   0.0000

          k = 0.7500 0.0722 0.0938 (  7982 PWs)   bands (ev):

   -17.5657 -17.5657 -16.6129 -16.6129 -16.1425 -16.1425 -10.6518 -10.6518
    -9.8364  -9.8364  -8.2329  -8.2329  -6.2585  -6.2585  -6.2186  -6.2186
    -5.5507  -5.5507  -5.4478  -5.4478  -4.4709  -4.4709  -3.9706  -3.9706
     3.6995   3.6995   4.5086   4.5086   5.6986   5.6986   6.2771   6.2772

     occupation numbers 
     1.0000   1.0000   1.0000   1.0000   1.0000   1.0000   1.0000   1.0000
     1.0000   1.0000   1.0000   1.0000   1.0000   1.0000   1.0000   1.0000
     1.0000   1.0000   1.0000   1.0000   1.0000   1.0000   1.0000   1.0000
     0.0000   0.0000   0.0000   0.0000   0.0000   0.0000   0.0000   0.0000

          k =-0.4375 0.6134 0.1562 (  7992 PWs)   bands (ev):

   -17.5657 -17.5657 -16.6129 -16.6129 -16.1425 -16.1425 -10.6518 -10.6518
    -9.8364  -9.8364  -8.2329  -8.2329  -6.2585  -6.2585  -6.2186  -6.2186
    -5.5508  -5.5508  -5.4478  -5.4478  -4.4710  -4.4710  -3.9707  -3.9707
     3.6991   3.6991   4.5079   4.5079   5.8714   5.8714   6.2726   6.2726

     occupation numbers 
     1.0000   1.0000   1.0000   1.0000   1.0000   1.0000   1.0000   1.0000
     1.0000   1.0000   1.0000   1.0000   1.0000   1.0000   1.0000   1.0000
     1.0000   1.0000   1.0000   1.0000   1.0000   1.0000   1.0000   1.0000
     0.0000   0.0000   0.0000   0.0000   0.0000   0.0000   0.0000   0.0000

          k = 0.7500 0.0722 0.1562 (  7992 PWs)   bands (ev):

   -17.5657 -17.5657 -16.6129 -16.6129 -16.1425 -16.1425 -10.6518 -10.6518
    -9.8364  -9.8364  -8.2329  -8.2329  -6.2585  -6.2585  -6.2186  -6.2186
    -5.5508  -5.5508  -5.4478  -5.4478  -4.4710  -4.4710  -3.9707  -3.9707
     3.6991   3.6991   4.5079   4.5079   5.8714   5.8714   6.2725   6.2726

     occupation numbers 
     1.0000   1.0000   1.0000   1.0000   1.0000   1.0000   1.0000   1.0000
     1.0000   1.0000   1.0000   1.0000   1.0000   1.0000   1.0000   1.0000
     1.0000   1.0000   1.0000   1.0000   1.0000   1.0000   1.0000   1.0000
     0.0000   0.0000   0.0000   0.0000   0.0000   0.0000   0.0000   0.0000

          k =-0.4375 0.6134 0.2188 (  7969 PWs)   bands (ev):

   -17.5657 -17.5657 -16.6129 -16.6129 -16.1425 -16.1425 -10.6518 -10.6518
    -9.8364  -9.8364  -8.2329  -8.2329  -6.2585  -6.2585  -6.2186  -6.2186
    -5.5509  -5.5509  -5.4478  -5.4478  -4.4710  -4.4710  -3.9708  -3.9708
     3.6989   3.6989   4.5075   4.5075   6.0979   6.0979   6.2471   6.2471

     occupation numbers 
     1.0000   1.0000   1.0000   1.0000   1.0000   1.0000   1.0000   1.0000
     1.0000   1.0000   1.0000   1.0000   1.0000   1.0000   1.0000   1.0000
     1.0000   1.0000   1.0000   1.0000   1.0000   1.0000   1.0000   1.0000
     0.0000   0.0000   0.0000   0.0000   0.0000   0.0000   0.0000   0.0000

          k = 0.7500 0.0722 0.2188 (  7969 PWs)   bands (ev):

   -17.5657 -17.5657 -16.6129 -16.6129 -16.1425 -16.1425 -10.6518 -10.6518
    -9.8364  -9.8364  -8.2329  -8.2329  -6.2585  -6.2585  -6.2186  -6.2186
    -5.5509  -5.5509  -5.4478  -5.4478  -4.4710  -4.4710  -3.9708  -3.9708
     3.6989   3.6989   4.5075   4.5075   6.0981   6.0982   6.2476   6.2476

     occupation numbers 
     1.0000   1.0000   1.0000   1.0000   1.0000   1.0000   1.0000   1.0000
     1.0000   1.0000   1.0000   1.0000   1.0000   1.0000   1.0000   1.0000
     1.0000   1.0000   1.0000   1.0000   1.0000   1.0000   1.0000   1.0000
     0.0000   0.0000   0.0000   0.0000   0.0000   0.0000   0.0000   0.0000

          k = 0.4375 0.1083 0.0312 (  7998 PWs)   bands (ev):

   -18.2293 -18.2293 -16.3202 -16.3202 -14.9437 -14.9437 -12.0918 -12.0918
    -9.7076  -9.7076  -7.3056  -7.3056  -6.9138  -6.9138  -6.6381  -6.6381
    -6.3260  -6.3260  -5.0534  -5.0534  -4.1271  -4.1271  -2.8167  -2.8167
     2.2153   2.2153   4.2467   4.2467   4.6913   4.6913   6.9230   6.9230

     occupation numbers 
     1.0000   1.0000   1.0000   1.0000   1.0000   1.0000   1.0000   1.0000
     1.0000   1.0000   1.0000   1.0000   1.0000   1.0000   1.0000   1.0000
     1.0000   1.0000   1.0000   1.0000   1.0000   1.0000   1.0000   1.0000
     0.0000   0.0000   0.0000   0.0000   0.0000   0.0000   0.0000   0.0000

          k =-0.1250-0.4330 0.0312 (  7998 PWs)   bands (ev):

   -18.2293 -18.2293 -16.3202 -16.3202 -14.9437 -14.9437 -12.0918 -12.0918
    -9.7076  -9.7076  -7.3056  -7.3056  -6.9138  -6.9138  -6.6381  -6.6381
    -6.3260  -6.3260  -5.0534  -5.0534  -4.1271  -4.1271  -2.8167  -2.8167
     2.2153   2.2153   4.2467   4.2467   4.6912   4.6912   6.9231   6.9232

     occupation numbers 
     1.0000   1.0000   1.0000   1.0000   1.0000   1.0000   1.0000   1.0000
     1.0000   1.0000   1.0000   1.0000   1.0000   1.0000   1.0000   1.0000
     1.0000   1.0000   1.0000   1.0000   1.0000   1.0000   1.0000   1.0000
     0.0000   0.0000   0.0000   0.0000   0.0000   0.0000   0.0000   0.0000

          k = 0.4375 0.1083 0.0938 (  8003 PWs)   bands (ev):

   -18.2293 -18.2293 -16.3202 -16.3202 -14.9437 -14.9437 -12.0918 -12.0918
    -9.7076  -9.7076  -7.3056  -7.3056  -6.9138  -6.9138  -6.6381  -6.6381
    -6.3261  -6.3261  -5.0534  -5.0534  -4.1271  -4.1271  -2.8167  -2.8167
     2.2152   2.2152   4.2465   4.2465   4.7851   4.7851   6.5371   6.5374

     occupation numbers 
     1.0000   1.0000   1.0000   1.0000   1.0000   1.0000   1.0000   1.0000
     1.0000   1.0000   1.0000   1.0000   1.0000   1.0000   1.0000   1.0000
     1.0000   1.0000   1.0000   1.0000   1.0000   1.0000   1.0000   1.0000
     0.0000   0.0000   0.0000   0.0000   0.0000   0.0000   0.0000   0.0000

          k =-0.1250-0.4330 0.0938 (  8003 PWs)   bands (ev):

   -18.2293 -18.2293 -16.3202 -16.3202 -14.9437 -14.9437 -12.0918 -12.0918
    -9.7076  -9.7076  -7.3056  -7.3056  -6.9138  -6.9138  -6.6381  -6.6381
    -6.3261  -6.3261  -5.0534  -5.0534  -4.1271  -4.1271  -2.8167  -2.8167
     2.2152   2.2152   4.2465   4.2465   4.7851   4.7851   6.5372   6.5373

     occupation numbers 
     1.0000   1.0000   1.0000   1.0000   1.0000   1.0000   1.0000   1.0000
     1.0000   1.0000   1.0000   1.0000   1.0000   1.0000   1.0000   1.0000
     1.0000   1.0000   1.0000   1.0000   1.0000   1.0000   1.0000   1.0000
     0.0000   0.0000   0.0000   0.0000   0.0000   0.0000   0.0000   0.0000

          k = 0.4375 0.1083 0.1562 (  7997 PWs)   bands (ev):

   -18.2293 -18.2293 -16.3202 -16.3202 -14.9437 -14.9437 -12.0918 -12.0918
    -9.7076  -9.7076  -7.3056  -7.3056  -6.9138  -6.9138  -6.6381  -6.6381
    -6.3262  -6.3262  -5.0534  -5.0534  -4.1272  -4.1272  -2.8168  -2.8168
     2.2150   2.2150   4.2464   4.2464   4.9689   4.9689   6.0760   6.0761

     occupation numbers 
     1.0000   1.0000   1.0000   1.0000   1.0000   1.0000   1.0000   1.0000
     1.0000   1.0000   1.0000   1.0000   1.0000   1.0000   1.0000   1.0000
     1.0000   1.0000   1.0000   1.0000   1.0000   1.0000   1.0000   1.0000
     0.0000   0.0000   0.0000   0.0000   0.0000   0.0000   0.0000   0.0000

          k =-0.1250-0.4330 0.1562 (  7997 PWs)   bands (ev):

   -18.2293 -18.2293 -16.3202 -16.3202 -14.9437 -14.9437 -12.0918 -12.0918
    -9.7076  -9.7076  -7.3056  -7.3056  -6.9138  -6.9138  -6.6381  -6.6381
    -6.3262  -6.3262  -5.0534  -5.0534  -4.1272  -4.1272  -2.8168  -2.8168
     2.2150   2.2150   4.2464   4.2464   4.9689   4.9690   6.0760   6.0761

     occupation numbers 
     1.0000   1.0000   1.0000   1.0000   1.0000   1.0000   1.0000   1.0000
     1.0000   1.0000   1.0000   1.0000   1.0000   1.0000   1.0000   1.0000
     1.0000   1.0000   1.0000   1.0000   1.0000   1.0000   1.0000   1.0000
     0.0000   0.0000   0.0000   0.0000   0.0000   0.0000   0.0000   0.0000

          k = 0.4375 0.1083 0.2188 (  7995 PWs)   bands (ev):

   -18.2293 -18.2293 -16.3202 -16.3202 -14.9437 -14.9437 -12.0918 -12.0918
    -9.7076  -9.7076  -7.3056  -7.3056  -6.9138  -6.9138  -6.6381  -6.6381
    -6.3263  -6.3263  -5.0534  -5.0534  -4.1273  -4.1273  -2.8168  -2.8168
     2.2149   2.2149   4.2463   4.2463   5.2213   5.2213   5.6715   5.6716

     occupation numbers 
     1.0000   1.0000   1.0000   1.0000   1.0000   1.0000   1.0000   1.0000
     1.0000   1.0000   1.0000   1.0000   1.0000   1.0000   1.0000   1.0000
     1.0000   1.0000   1.0000   1.0000   1.0000   1.0000   1.0000   1.0000
     0.0000   0.0000   0.0000   0.0000   0.0000   0.0000   0.0000   0.0000

          k =-0.1250-0.4330 0.2188 (  7995 PWs)   bands (ev):

   -18.2293 -18.2293 -16.3202 -16.3202 -14.9437 -14.9437 -12.0918 -12.0918
    -9.7076  -9.7076  -7.3056  -7.3056  -6.9138  -6.9138  -6.6381  -6.6381
    -6.3263  -6.3263  -5.0534  -5.0534  -4.1273  -4.1273  -2.8168  -2.8168
     2.2149   2.2149   4.2463   4.2463   5.2213   5.2213   5.6713   5.6713

     occupation numbers 
     1.0000   1.0000   1.0000   1.0000   1.0000   1.0000   1.0000   1.0000
     1.0000   1.0000   1.0000   1.0000   1.0000   1.0000   1.0000   1.0000
     1.0000   1.0000   1.0000   1.0000   1.0000   1.0000   1.0000   1.0000
     0.0000   0.0000   0.0000   0.0000   0.0000   0.0000   0.0000   0.0000

          k = 0.0000-0.3608 0.0312 (  8000 PWs)   bands (ev):

   -18.6544 -18.6544 -15.7973 -15.7973 -13.8857 -13.8857 -13.0204 -13.0204
    -9.8186  -9.8186  -8.4405  -8.4405  -7.5841  -7.5841  -6.8311  -6.8311
    -5.4591  -5.4591  -4.6301  -4.6301  -3.5341  -3.5341  -2.0884  -2.0884
     1.4824   1.4824   3.6060   3.6060   4.1053   4.1053   6.3760   6.3760

     occupation numbers 
     1.0000   1.0000   1.0000   1.0000   1.0000   1.0000   1.0000   1.0000
     1.0000   1.0000   1.0000   1.0000   1.0000   1.0000   1.0000   1.0000
     1.0000   1.0000   1.0000   1.0000   1.0000   1.0000   1.0000   1.0000
     0.0000   0.0000   0.0000   0.0000   0.0000   0.0000   0.0000   0.0000

          k = 0.0000-0.3608 0.0938 (  7984 PWs)   bands (ev):

   -18.6544 -18.6544 -15.7973 -15.7973 -13.8857 -13.8857 -13.0204 -13.0204
    -9.8186  -9.8186  -8.4405  -8.4405  -7.5841  -7.5841  -6.8312  -6.8312
    -5.4591  -5.4591  -4.6301  -4.6301  -3.5342  -3.5342  -2.0884  -2.0884
     1.4823   1.4823   3.6060   3.6060   4.2001   4.2002   5.9748   5.9749

     occupation numbers 
     1.0000   1.0000   1.0000   1.0000   1.0000   1.0000   1.0000   1.0000
     1.0000   1.0000   1.0000   1.0000   1.0000   1.0000   1.0000   1.0000
     1.0000   1.0000   1.0000   1.0000   1.0000   1.0000   1.0000   1.0000
     0.0000   0.0000   0.0000   0.0000   0.0000   0.0000   0.0000   0.0000

          k = 0.0000-0.3608 0.1562 (  7994 PWs)   bands (ev):

   -18.6544 -18.6544 -15.7973 -15.7973 -13.8857 -13.8857 -13.0204 -13.0204
    -9.8186  -9.8186  -8.4405  -8.4405  -7.5841  -7.5841  -6.8313  -6.8313
    -5.4591  -5.4591  -4.6301  -4.6301  -3.5342  -3.5342  -2.0884  -2.0884
     1.4821   1.4821   3.6060   3.6060   4.3862   4.3862   5.5031   5.5031

     occupation numbers 
     1.0000   1.0000   1.0000   1.0000   1.0000   1.0000   1.0000   1.0000
     1.0000   1.0000   1.0000   1.0000   1.0000   1.0000   1.0000   1.0000
     1.0000   1.0000   1.0000   1.0000   1.0000   1.0000   1.0000   1.0000
     0.0000   0.0000   0.0000   0.0000   0.0000   0.0000   0.0000   0.0000

          k = 0.0000-0.3608 0.2188 (  8000 PWs)   bands (ev):

   -18.6544 -18.6544 -15.7973 -15.7973 -13.8857 -13.8857 -13.0204 -13.0204
    -9.8186  -9.8186  -8.4405  -8.4405  -7.5841  -7.5841  -6.8314  -6.8314
    -5.4591  -5.4591  -4.6301  -4.6301  -3.5343  -3.5343  -2.0885  -2.0885
     1.4820   1.4820   3.6060   3.6060   4.6434   4.6435   5.0903   5.0903

     occupation numbers 
     1.0000   1.0000   1.0000   1.0000   1.0000   1.0000   1.0000   1.0000
     1.0000   1.0000   1.0000   1.0000   1.0000   1.0000   1.0000   1.0000
     1.0000   1.0000   1.0000   1.0000   1.0000   1.0000   1.0000   1.0000
     0.0000   0.0000   0.0000   0.0000   0.0000   0.0000   0.0000   0.0000

          k = 0.8750 0.0000 0.0312 (  8001 PWs)   bands (ev):

   -17.3873 -17.3873 -17.3855 -17.3855 -15.0548 -15.0548 -12.1870 -12.1870
    -8.2143  -8.2143  -8.2131  -8.2131  -6.3960  -6.3960  -6.1479  -6.1479
    -6.1476  -6.1476  -5.3397  -5.3397  -5.3381  -5.3381  -2.9594  -2.9594
     2.2517   2.2517   5.8612   5.8612   6.0562   6.0569   6.0594   6.0597

     occupation numbers 
     1.0000   1.0000   1.0000   1.0000   1.0000   1.0000   1.0000   1.0000
     1.0000   1.0000   1.0000   1.0000   1.0000   1.0000   1.0000   1.0000
     1.0000   1.0000   1.0000   1.0000   1.0000   1.0000   1.0000   1.0000
     0.0000   0.0000   0.0000   0.0000   0.0000   0.0000   0.0000   0.0000

          k = 0.8750 0.0000 0.0938 (  8007 PWs)   bands (ev):

   -17.3873 -17.3873 -17.3855 -17.3855 -15.0548 -15.0548 -12.1870 -12.1870
    -8.2143  -8.2143  -8.2131  -8.2131  -6.3960  -6.3960  -6.1479  -6.1479
    -6.1476  -6.1476  -5.3397  -5.3397  -5.3381  -5.3381  -2.9594  -2.9594
     2.2515   2.2515   5.9461   5.9462   5.9462   5.9494   6.0640   6.0650

     occupation numbers 
     1.0000   1.0000   1.0000   1.0000   1.0000   1.0000   1.0000   1.0000
     1.0000   1.0000   1.0000   1.0000   1.0000   1.0000   1.0000   1.0000
     1.0000   1.0000   1.0000   1.0000   1.0000   1.0000   1.0000   1.0000
     0.0000   0.0000   0.0000   0.0000   0.0000   0.0000   0.0000   0.0000

          k = 0.8750 0.0000 0.1562 (  8001 PWs)   bands (ev):

   -17.3873 -17.3873 -17.3855 -17.3855 -15.0548 -15.0548 -12.1870 -12.1870
    -8.2143  -8.2143  -8.2131  -8.2131  -6.3960  -6.3960  -6.1479  -6.1479
    -6.1476  -6.1476  -5.3398  -5.3398  -5.3382  -5.3382  -2.9595  -2.9595
     2.2513   2.2513   6.0344   6.0345   6.0364   6.0375   6.1536   6.1538

     occupation numbers 
     1.0000   1.0000   1.0000   1.0000   1.0000   1.0000   1.0000   1.0000
     1.0000   1.0000   1.0000   1.0000   1.0000   1.0000   1.0000   1.0000
     1.0000   1.0000   1.0000   1.0000   1.0000   1.0000   1.0000   1.0000
     0.0000   0.0000   0.0000   0.0000   0.0000   0.0000   0.0000   0.0000

          k = 0.8750 0.0000 0.2188 (  7979 PWs)   bands (ev):

   -17.3873 -17.3873 -17.3855 -17.3855 -15.0548 -15.0548 -12.1870 -12.1870
    -8.2143  -8.2143  -8.2131  -8.2131  -6.3960  -6.3960  -6.1479  -6.1479
    -6.1476  -6.1476  -5.3399  -5.3399  -5.3383  -5.3383  -2.9595  -2.9595
     2.2512   2.2512   6.0444   6.0446   6.0460   6.0461   6.3810   6.3814

     occupation numbers 
     1.0000   1.0000   1.0000   1.0000   1.0000   1.0000   1.0000   1.0000
     1.0000   1.0000   1.0000   1.0000   1.0000   1.0000   1.0000   1.0000
     1.0000   1.0000   1.0000   1.0000   1.0000   1.0000   1.0000   1.0000
     0.0000   0.0000   0.0000   0.0000   0.0000   0.0000   0.0000   0.0000

          k = 0.0000-0.5052 0.0312 (  7997 PWs)   bands (ev):

   -17.9272 -17.9272 -16.9697 -16.9697 -14.0926 -14.0926 -13.2319 -13.2319
    -8.4558  -8.4558  -7.1486  -7.1486  -6.9735  -6.9735  -6.6233  -6.6233
    -5.9685  -5.9685  -5.8367  -5.8367  -4.8542  -4.8542  -2.3886  -2.3886
     1.5674   1.5674   5.1105   5.1105   5.3991   5.3991   6.4463   6.4470

     occupation numbers 
     1.0000   1.0000   1.0000   1.0000   1.0000   1.0000   1.0000   1.0000
     1.0000   1.0000   1.0000   1.0000   1.0000   1.0000   1.0000   1.0000
     1.0000   1.0000   1.0000   1.0000   1.0000   1.0000   1.0000   1.0000
     0.0000   0.0000   0.0000   0.0000   0.0000   0.0000   0.0000   0.0000

          k = 0.0000-0.5052 0.0938 (  7991 PWs)   bands (ev):

   -17.9272 -17.9272 -16.9697 -16.9697 -14.0926 -14.0926 -13.2319 -13.2319
    -8.4558  -8.4558  -7.1486  -7.1486  -6.9735  -6.9735  -6.6233  -6.6233
    -5.9686  -5.9686  -5.8367  -5.8367  -4.8543  -4.8543  -2.3886  -2.3886
     1.5673   1.5673   5.2037   5.2037   5.3991   5.3991   6.5367   6.5369

     occupation numbers 
     1.0000   1.0000   1.0000   1.0000   1.0000   1.0000   1.0000   1.0000
     1.0000   1.0000   1.0000   1.0000   1.0000   1.0000   1.0000   1.0000
     1.0000   1.0000   1.0000   1.0000   1.0000   1.0000   1.0000   1.0000
     0.0000   0.0000   0.0000   0.0000   0.0000   0.0000   0.0000   0.0000

          k = 0.0000-0.5052 0.1562 (  8003 PWs)   bands (ev):

   -17.9272 -17.9272 -16.9697 -16.9697 -14.0926 -14.0926 -13.2319 -13.2319
    -8.4558  -8.4558  -7.1486  -7.1486  -6.9735  -6.9735  -6.6233  -6.6233
    -5.9687  -5.9687  -5.8367  -5.8367  -4.8544  -4.8544  -2.3887  -2.3887
     1.5671   1.5671   5.3862   5.3862   5.3990   5.3990   6.4899   6.4899

     occupation numbers 
     1.0000   1.0000   1.0000   1.0000   1.0000   1.0000   1.0000   1.0000
     1.0000   1.0000   1.0000   1.0000   1.0000   1.0000   1.0000   1.0000
     1.0000   1.0000   1.0000   1.0000   1.0000   1.0000   1.0000   1.0000
     0.0000   0.0000   0.0000   0.0000   0.0000   0.0000   0.0000   0.0000

          k = 0.0000-0.5052 0.2188 (  7999 PWs)   bands (ev):

   -17.9272 -17.9272 -16.9697 -16.9697 -14.0926 -14.0926 -13.2320 -13.2320
    -8.4558  -8.4558  -7.1486  -7.1486  -6.9735  -6.9735  -6.6233  -6.6233
    -5.9688  -5.9688  -5.8367  -5.8367  -4.8544  -4.8544  -2.3887  -2.3887
     1.5670   1.5670   5.3990   5.3990   5.6356   5.6356   6.0890   6.0891

     occupation numbers 
     1.0000   1.0000   1.0000   1.0000   1.0000   1.0000   1.0000   1.0000
     1.0000   1.0000   1.0000   1.0000   1.0000   1.0000   1.0000   1.0000
     1.0000   1.0000   1.0000   1.0000   1.0000   1.0000   1.0000   1.0000
     0.0000   0.0000   0.0000   0.0000   0.0000   0.0000   0.0000   0.0000

     the Fermi energy is    -0.0660 ev

!    total energy              =     -71.79149839 Ry
     estimated scf accuracy    <          5.2E-10 Ry
     smearing contrib. (-TS)   =      -0.00001804 Ry
     internal energy E=F+TS    =     -71.79148035 Ry

     The total energy is F=E-TS. E is the sum of the following terms:
     one-electron contribution =    -214.14597390 Ry
     hartree contribution      =     112.98953251 Ry
     xc contribution           =     -24.79094514 Ry
     ewald contribution        =      54.15590618 Ry

     convergence has been achieved in  21 iterations

     negative rho (up, down):  3.839E-05 0.000E+00

     Forces acting on atoms (cartesian axes, Ry/au):

     atom    1 type  1   force =    -0.00000479   -0.00033217    0.00000000
     atom    2 type  1   force =     0.00000479   -0.00033217    0.00000000
     atom    3 type  1   force =     0.00001938    0.00009026    0.00000000
     atom    4 type  1   force =     0.00001454    0.00024191    0.00000000
     atom    5 type  1   force =    -0.00001938    0.00009026    0.00000000
     atom    6 type  1   force =    -0.00001454    0.00024191    0.00000000
     The non-local contrib.  to forces
     atom    1 type  1   force =    -0.00003002   -0.00052046   -0.00000000
     atom    2 type  1   force =     0.00003002   -0.00052046    0.00000000
     atom    3 type  1   force =     0.00011434    0.00014115    0.00000000
     atom    4 type  1   force =     0.00008427    0.00037934   -0.00000000
     atom    5 type  1   force =    -0.00011434    0.00014115    0.00000000
     atom    6 type  1   force =    -0.00008427    0.00037934    0.00000000
     The ionic contribution  to forces
     atom    1 type  1   force =    -0.00023669   -0.00224824   -0.00000000
     atom    2 type  1   force =     0.00023669   -0.00224824   -0.00000000
     atom    3 type  1   force =     0.00089675    0.00061059   -0.00000000
     atom    4 type  1   force =     0.00065943    0.00163765   -0.00000000
     atom    5 type  1   force =    -0.00089675    0.00061059   -0.00000000
     atom    6 type  1   force =    -0.00065943    0.00163765   -0.00000000
     The local contribution  to forces
     atom    1 type  1   force =     0.00026012    0.00241726   -0.00000000
     atom    2 type  1   force =    -0.00026012    0.00241726   -0.00000000
     atom    3 type  1   force =    -0.00098498   -0.00065651   -0.00000000
     atom    4 type  1   force =    -0.00072406   -0.00176075   -0.00000000
     atom    5 type  1   force =     0.00098498   -0.00065651   -0.00000000
     atom    6 type  1   force =     0.00072406   -0.00176075   -0.00000000
     The core correction contribution to forces
     atom    1 type  1   force =     0.00000190    0.00001994    0.00000000
     atom    2 type  1   force =    -0.00000190    0.00001994    0.00000000
     atom    3 type  1   force =    -0.00000719   -0.00000542    0.00000000
     atom    4 type  1   force =    -0.00000529   -0.00001454    0.00000000
     atom    5 type  1   force =     0.00000719   -0.00000542    0.00000000
     atom    6 type  1   force =     0.00000529   -0.00001454    0.00000000
     The Hubbard contrib.    to forces
     atom    1 type  1   force =     0.00000000    0.00000000    0.00000000
     atom    2 type  1   force =     0.00000000    0.00000000    0.00000000
     atom    3 type  1   force =     0.00000000    0.00000000    0.00000000
     atom    4 type  1   force =     0.00000000    0.00000000    0.00000000
     atom    5 type  1   force =     0.00000000    0.00000000    0.00000000
     atom    6 type  1   force =     0.00000000    0.00000000    0.00000000
     The SCF correction term to forces
     atom    1 type  1   force =    -0.00000010   -0.00000068    0.00000000
     atom    2 type  1   force =     0.00000010   -0.00000068    0.00000000
     atom    3 type  1   force =     0.00000047    0.00000044    0.00000000
     atom    4 type  1   force =     0.00000019    0.00000020    0.00000000
     atom    5 type  1   force =    -0.00000047    0.00000044    0.00000000
     atom    6 type  1   force =    -0.00000019    0.00000020    0.00000000

     Total force =     0.000596     Total SCF correction =     0.000001


     Computing stress (Cartesian axis) and pressure


     negative rho (up, down):  3.839E-05 0.000E+00
          total   stress  (Ry/bohr**3)                   (kbar)     P=      -19.11
  -0.00019358   0.00000000   0.00000000          -28.48        0.00        0.00
   0.00000000  -0.00019358   0.00000000            0.00      -28.48        0.00
   0.00000000   0.00000000  -0.00000262            0.00        0.00       -0.39

     kinetic stress (kbar)   4483.90      0.00      0.00
                                0.00   4483.90     -0.00
                                0.00     -0.00   5097.10

     local   stress (kbar) -41490.16     -0.00      0.00
                               -0.00 -41490.16      0.00
                                0.00      0.00  40329.04

     nonloc. stress (kbar)   1666.13     -0.00      0.00
                               -0.00   1666.13      0.00
                                0.00      0.00   1496.28

     hartree stress (kbar)  17993.75     -0.00      0.00
                               -0.00  17993.75     -0.00
                                0.00     -0.00 -17593.35

     exc-cor stress (kbar)   -518.08      0.00      0.00
                                0.00   -518.08      0.00
                                0.00      0.00   -518.08

     corecor stress (kbar)   -657.08     -0.00      0.00
                               -0.00   -657.08      0.00
                                0.00      0.00   -641.59

     ewald   stress (kbar)  18493.06     -0.00     -0.00
                               -0.00  18493.06     -0.00
                               -0.00     -0.00 -28169.79

     hubbard stress (kbar)      0.00      0.00      0.00
                                0.00      0.00      0.00
                                0.00      0.00      0.00

     DFT-D   stress (kbar)      0.00      0.00      0.00
                                0.00      0.00      0.00
                                0.00      0.00      0.00

     XDM     stress (kbar)      0.00      0.00      0.00
                                0.00      0.00      0.00
                                0.00      0.00      0.00

     dft-nl  stress (kbar)      0.00      0.00      0.00
                                0.00      0.00      0.00
                                0.00      0.00      0.00

     TS-vdW  stress (kbar)      0.00      0.00      0.00
                                0.00      0.00      0.00
                                0.00      0.00      0.00

     MDB     stress (kbar)      0.00      0.00      0.00
                                0.00      0.00      0.00
                                0.00      0.00      0.00

     3D-RISM stress (kbar)      0.00      0.00      0.00
                                0.00      0.00      0.00
                                0.00      0.00      0.00


     Writing all to output data dir /home/amin/Desktop/QE/sample01.save/ :
     XML data file, charge density, pseudopotentials, collected wavefunctions

     init_run     :    100.13s CPU    113.56s WALL (       1 calls)
     electrons    :   5596.99s CPU   5813.25s WALL (       1 calls)
     forces       :     33.20s CPU     34.71s WALL (       1 calls)
     stress       :    138.71s CPU    167.00s WALL (       1 calls)

     Called by init_run:
     wfcinit      :     99.64s CPU    113.00s WALL (       1 calls)
     wfcinit:atom :      0.25s CPU      0.27s WALL (     208 calls)
     wfcinit:wfcr :     96.18s CPU    104.26s WALL (     208 calls)
     potinit      :      0.02s CPU      0.04s WALL (       1 calls)
     hinit0       :      0.26s CPU      0.26s WALL (       1 calls)

     Called by electrons:
     c_bands      :   5174.07s CPU   5368.20s WALL (      21 calls)
     sum_band     :    420.15s CPU    441.85s WALL (      21 calls)
     v_of_rho     :      0.19s CPU      0.24s WALL (      22 calls)
     v_h          :      0.05s CPU      0.06s WALL (      22 calls)
     v_xc         :      0.14s CPU      0.18s WALL (      24 calls)
     newd         :      1.77s CPU      1.85s WALL (      22 calls)
     mix_rho      :      0.66s CPU      0.84s WALL (      21 calls)

     Called by c_bands:
     init_us_2    :     13.00s CPU     15.98s WALL (    9360 calls)
     cegterg      :   5083.97s CPU   5264.57s WALL (    4368 calls)

     Called by sum_band:
     sum_band:wei :      0.06s CPU      0.09s WALL (      21 calls)
     sum_band:loo :    418.74s CPU    440.37s WALL (      21 calls)
     sum_band:buf :      1.04s CPU      2.78s WALL (    4368 calls)
     sum_band:ini :      5.94s CPU      6.97s WALL (    4368 calls)
     sum_band:cal :    149.09s CPU    151.06s WALL (    4368 calls)
     sum_band:bec :      3.82s CPU      3.88s WALL (    4368 calls)
     addusdens    :      1.08s CPU      1.11s WALL (      21 calls)
                                        0.00s GPU  (      21 calls)
     addusd:skk   :      0.01s CPU      0.01s WALL (      21 calls)
                                        0.00s GPU  (      21 calls)

     Called by *egterg:
     cdiaghg      :     60.19s CPU     61.51s WALL (   26519 calls)
     cegterg:over :    543.96s CPU    555.93s WALL (   22151 calls)
     cegterg:upda :    285.71s CPU    290.97s WALL (   22151 calls)
     cegterg:last :    755.94s CPU    770.15s WALL (   13461 calls)
     h_psi        :   2765.24s CPU   2904.77s WALL (   26727 calls)
     s_psi        :    500.26s CPU    509.89s WALL (   26727 calls)
     g_psi        :      6.94s CPU      7.16s WALL (   22151 calls)

     Called by h_psi:
     h_psi:calbec :    526.48s CPU    538.67s WALL (   26727 calls)
     vloc_psi     :   1724.35s CPU   1841.58s WALL (   26727 calls)
                                        0.00s GPU  (   26727 calls)
     add_vuspsi   :    504.86s CPU    514.79s WALL (   26727 calls)

     General routines
     calbec       :    838.53s CPU    880.87s WALL (   34631 calls)
     fft          :      0.50s CPU      0.53s WALL (     225 calls)
     ffts         :      0.08s CPU      0.09s WALL (      84 calls)
     fftw         :   1741.61s CPU   1862.76s WALL ( 2232980 calls)
     davcio       :      3.81s CPU     15.98s WALL (   14262 calls)

     Parallel routines

     PWSCF        :      1h37m CPU      1h42m WALL


   This run was terminated on:  17:27:58  29Aug2026            

=------------------------------------------------------------------------------=
   JOB DONE.
=------------------------------------------------------------------------------=
